14
OptimizedStructure
C     -0.357582825905     -0.106133872589     -0.529013219217
H     -0.118240068841      0.665150768827     -1.268566461125
H     -1.413155720132      0.009997839088     -0.261836761812
O      0.449704801717      0.067656785994      0.622466521410
C      0.345991777150      1.259367018068      1.264596994780
H      1.009553792227      1.265524444269      2.122116733432
C     -0.413087896746      2.295375988865      0.962430056269
H     -1.082604059751      2.322849655296      0.119137828420
H     -0.376117678783      3.177156375335      1.583821760947
C     -0.128779127594     -1.458005160671     -1.114474237016
H     -0.718273679996     -1.653381422480     -1.999864628147
C      0.699125951016     -2.361337494678     -0.637436338160
H      1.283206767983     -2.159100303979      0.245455544175
H      0.820257967655     -3.325120621346     -1.108833793956
