14
OptimizedStructure
C      0.336983158216     -0.519749245902     -2.032913749529
H      1.418644141979     -0.546443411930     -1.980343640173
H     -0.091895391527     -0.369019184967     -3.012657648401
O     -0.552939804945      2.530313267339      0.672964983904
C      0.149184319647      1.577870780737      0.876550330330
H      1.241857715249      1.609431383844      0.716944438385
C     -0.345656186968      0.244846207402      1.353632795067
H     -1.430978012760      0.262180633582      1.420073790104
H      0.052215904068      0.069912469238      2.352774654256
C     -0.411552223167     -0.666977998998     -0.960562230380
H     -1.489966742507     -0.628374313624     -1.036477271317
C      0.121864893435     -0.859970966068      0.421340774801
H      1.215468777198     -0.883344730262      0.392546168916
H     -0.213230547918     -1.820674890389      0.816126604036
