14
OptimizedStructure
C     -0.394254533060     -0.532890084110      0.675180469651
H     -1.333008844679      0.025718082413      0.656046467064
H     -0.497353847463     -1.363509153465      1.375278728108
O      0.639344747145      0.289944388632      1.214648591129
C      0.690099285372      1.587284723000      0.820284895550
H      1.519084163344      2.079637309856      1.317220457639
C     -0.097055375875      2.235199500692     -0.017677565798
H     -0.923600041501      1.782750634623     -0.540257270316
H      0.080579071877      3.282953887473     -0.206172779839
C     -0.035435061551     -1.038060704242     -0.680413463701
H      0.170378017531     -0.283220140155     -1.422188599329
C      0.041177438149     -2.318416230389     -0.979857671601
H     -0.152980984633     -3.084679435931     -0.240189155331
H      0.293025965344     -2.662712778398     -1.971903103225
