14
OptimizedStructure
C      1.275250416673     -1.457415524160     -1.276379800302
H      1.788816755797     -2.103688787801     -0.575231802732
H      1.626915474281     -1.478377172388     -2.297297184276
O     -0.678378991706      2.730165770655     -0.255190452256
C     -1.040940213323      1.730064469263      0.302143857117
H     -2.097829042093      1.406280189639      0.294791123370
C     -0.140697774071      0.798500440169      1.055535136443
H      0.884415688780      1.157012537885      1.008948927210
H     -0.456609494143      0.796037820842      2.098523124389
C      0.273957470001     -0.691112030239     -0.900092516307
H     -0.218102521336     -0.044764391086     -1.613928910461
C     -0.242992764134     -0.613317193768      0.499327352317
H      0.317330608332     -1.300688443096      1.135412544023
H     -1.291135613057     -0.928697685915      0.523438601467
