14
OptimizedStructure
C     -1.841095406474     -1.099623999924     -1.185998699282
H     -2.563499422812     -1.044798076382     -1.987100187003
H     -2.080221305026     -1.763629684298     -0.365006757120
O      1.356964741124      1.094254291944      2.746211852359
C      1.532981114985      0.876304147750      1.578464282534
H      2.523094716244      0.592593439841      1.177808352373
C      0.459354100739      0.928852873095      0.535136353023
H      0.739308344560      1.661175230939     -0.223333044611
H     -0.478919503457      1.245405568833      0.983252755548
C     -0.724803261951     -0.402726756666     -1.204161698326
H     -0.506065208794      0.260443828514     -2.031313837269
C      0.301610037077     -0.433499996007     -0.121380718489
H      0.015752596917     -1.169967619329      0.633077581854
H      1.265538456869     -0.744783248309     -0.535656235592
