14
OptimizedStructure
C      0.274167819332     -0.926374580613     -1.892908542044
H      1.049977012373     -1.125816522148     -2.617406591873
H     -0.707642086816     -0.698671345752     -2.289984054958
O      1.014272039852      2.430709949379      0.473266334681
C      0.032493262761      1.740127050294      0.501176397425
H     -0.865252302913      1.971794113713     -0.099477646035
C     -0.106210102041      0.494589069373      1.325085457228
H      0.833297249735      0.287189733747      1.831987588170
H     -0.868947409409      0.669235086224      2.083319452055
C      0.505577412415     -0.961182755783     -0.597856954373
H      1.496509225284     -1.182818182615     -0.224809419144
C     -0.519610964713     -0.677243455047      0.450858054028
H     -1.481765437130     -0.464229528517     -0.024777070015
H     -0.656865718729     -1.557308632256      1.081526994854
