14
OptimizedStructure
C     -0.935138830436     -0.788975879123     -1.970408068428
H     -0.620514050592     -0.844097947387     -3.002082787533
H     -1.997550462764     -0.885949726298     -1.783577753961
O      2.093517538116      1.806773939422      0.576101536288
C      1.463116547327      0.920829641832      1.085977170949
H      1.952726982468      0.089900853020      1.626107672633
C     -0.031065603526      0.809625524900      1.055976977842
H     -0.452217693494      1.639932849992      0.494924915957
H     -0.393225216795      0.869663482009      2.082069554255
C     -0.076385564774     -0.616357408074     -0.988498465847
H      0.979310805993     -0.510629983426     -1.197729149735
C     -0.458165624942     -0.519464294083      0.452515415315
H     -1.538148416060     -0.639352408693      0.554052918677
H      0.013739589479     -1.331898644090      1.014570063589
