14
OptimizedStructure
C     -1.775150429271     -0.359002390598     -1.244764722782
H     -2.499375415200     -0.682028963283     -1.977788547706
H     -2.120151835116      0.355421542144     -0.511253358425
O      1.446197401907      0.608380828698      2.795202968486
C      1.357634695036      0.858810312232      1.623966405730
H      2.180619318480      1.337390905048      1.063107936613
C      0.163574473691      0.540760522571      0.778201260248
H     -0.189757652665      1.455814018282      0.302751878394
H     -0.634300999885      0.142102935231      1.398845703254
C     -0.542521245242     -0.820235316451     -1.249882736214
H     -0.242816958165     -1.539471885545     -2.000717544774
C      0.550682871808     -0.457495842827     -0.293550343911
H      0.908270275259     -1.373726174159      0.184252453218
H      1.397095499363     -0.066720491345     -0.868371352132
