14
OptimizedStructure
C     -0.060225142301      0.002236038709     -1.011285334334
H      0.731446413133      0.542063380399     -1.543279147355
H     -1.020801766625      0.375826794058     -1.382219801123
O      0.043412114669      0.238054530034      0.384255036235
C      0.035378399784      1.559342226536      0.730877337882
H      0.288298537115      2.256916027761     -0.061366087823
C     -0.231351364249      1.938634478354      1.963077566345
H     -0.480116186836      1.220679826801      2.727892446814
H     -0.186046844346      2.980564874244      2.239012817230
C      0.052202980116     -1.455965372951     -1.298688885661
H     -0.030677989047     -1.702209609014     -2.348574206843
C      0.234667507963     -2.390471973973     -0.391881755868
H      0.314724192412     -2.131650159161      0.651145228368
H      0.309089148212     -3.434021061796     -0.658965213867
