14
OptimizedStructure
C      0.414340629463      0.030462197303     -1.188365684934
H      1.187107760509      0.036889611130     -1.958033448694
H     -0.531489623738      0.342982163489     -1.643935831972
O      0.850238734155      0.991096158194     -0.229880436051
C     -0.070094584806      1.278944082208      0.738769903984
H     -1.095010658616      1.003847791803      0.512108316198
C      0.282284770503      1.878207077839      1.856636450834
H      1.311139595208      2.133937613500      2.053673552421
H     -0.458610619294      2.146665023345      2.593650067367
C      0.286612606592     -1.325998173860     -0.585654954364
H      1.161635171270     -1.674050229587     -0.058952952330
C     -0.798881333300     -2.066996274543     -0.667207305435
H     -1.682012897249     -1.722840554162     -1.191560672810
H     -0.857259550697     -3.053146486659     -0.231247004215
