14
OptimizedStructure
C     -0.220653883833      0.288179628577     -1.128582023090
H     -0.263039917740      0.422597809553     -2.211137473255
H     -1.230441949624      0.402072575923     -0.724605222419
O      0.620945706021      1.344378080114     -0.677830670753
C      0.610451235963      1.634717128960      0.649873508395
H      1.284253705005      2.463430350918      0.839172210549
C     -0.080660242950      1.063724894379      1.617374472477
H     -0.742100670583      0.227806596709      1.467061017238
H      0.022996792645      1.430662177053      2.627738859832
C      0.341358410980     -1.056649217880     -0.809088447113
H      1.393579769234     -1.168221294046     -1.021439612598
C     -0.369533647481     -2.060888613449     -0.340959258592
H     -1.425929609947     -1.956271423117     -0.125737320800
H      0.058774302310     -3.035538693695     -0.161840039871
