14
OptimizedStructure
C     -1.027337190776     -0.845653051080     -1.930513121971
H     -0.984557552799     -0.644867351987     -2.990876970663
H     -1.905852565521     -1.370225337304     -1.574978308944
O      2.232496432717      0.917222223738      0.610708655543
C      1.212839378705      1.319770429860      1.103051619909
H      1.154786246663      2.305840014964      1.594272840519
C     -0.078008457601      0.558355742043      1.148833613947
H     -0.881910948229      1.213453057502      0.811038644935
H     -0.278319815738      0.358804786675      2.202835572437
C     -0.061053131056     -0.484370294322     -1.113286042033
H      0.812557917012      0.034131984290     -1.479281390073
C     -0.070785178658     -0.734499193393      0.358488268026
H     -0.946669948040     -1.329772835062      0.624308544109
H      0.821814813321     -1.298190175923      0.635398074258
