14
OptimizedStructure
C     -0.625838109523     -0.100748594868     -0.905018123812
H     -0.271009756081      0.550014998283     -1.711544100375
H     -1.581159682063     -0.533721923893     -1.204404859291
O     -0.900299430256      0.680818987027      0.255437703504
C      0.085245399208      1.562210890479      0.594653892466
H      0.724294278272      1.890201043914     -0.220594853421
C      0.208334069753      2.010530644001      1.826416094703
H     -0.441560672382      1.663003864869      2.613331790324
H      0.946608190198      2.759214966102      2.069287995782
C      0.369033872061     -1.171745812739     -0.615482680326
H      1.326378805192     -0.829939092485     -0.251634336627
C      0.126063856113     -2.456594606354     -0.769662360572
H     -0.833998521644     -2.810804269189     -1.122710058338
H      0.867907701153     -3.212441095144     -0.558076104017
