14
OptimizedStructure
C     -0.131594400217     -0.653219073070     -2.057293145221
H      0.908368422829     -0.470077859037     -2.295651007728
H     -0.814316659074     -0.706676120015     -2.892692243176
O      0.876106093650      2.510510497637      1.310836519602
C      0.164217472705      1.676581658821      0.818290111264
H     -0.392330657274      1.857100033456     -0.115286352106
C     -0.036680653968      0.303946467542      1.386123615045
H     -1.091295128066      0.183047014794      1.637620073810
H      0.544815994953      0.204281209856      2.298332284619
C     -0.535217630860     -0.809475315201     -0.814127377179
H     -1.580392921468     -0.991583351898     -0.598798474546
C      0.362527093755     -0.766304784290      0.379132645980
H      1.395305164413     -0.603505531500      0.060849809729
H      0.330487808622     -1.734624847096      0.882663539908
