14
OptimizedStructure
C     -0.073767906631     -0.019025271126     -1.102305751251
H      0.552197763682      0.170464030726     -1.975230927000
H     -1.114921270092     -0.102043235606     -1.432439378057
O      0.073046694280      1.124515655376     -0.263500535128
C     -0.870624159494      1.237050763865      0.716315280457
H     -1.821471166676      0.752654746052      0.511764693558
C     -0.641123079004      1.931358309052      1.811141750294
H      0.314970312144      2.398507899060      1.984433286643
H     -1.417277597398      2.071736964492      2.547647971500
C      0.359001214478     -1.262925650496     -0.405126660247
H     -0.170284935311     -1.491507187758      0.507744212848
C      1.325193921092     -2.045565143197     -0.838242250112
H      1.870092167978     -1.819660965665     -1.745920566542
H      1.614968040952     -2.945560914776     -0.316281126964
