14
OptimizedStructure
C      1.555710138847     -1.357378576589     -1.111178228174
H      1.999132801474     -1.970054434981     -0.335695498140
H      2.066326700925     -1.343748828805     -2.062809172553
O     -1.940666213728      1.424698387180     -0.634301568729
C     -1.204918809258      1.703701402752      0.273981508855
H     -1.133489165048      2.731275023221      0.668937548805
C     -0.328243784553      0.727824597695      1.000095916104
H      0.677352177982      1.144712731416      1.067165764183
H     -0.702238841443      0.683835388760      2.024331378404
C      0.448227508991     -0.676971632746     -0.904737238907
H      0.012294044313     -0.072958078066     -1.686479975984
C     -0.295227267398     -0.658743486966      0.389759396109
H      0.169835475349     -1.355076123175      1.090489707934
H     -1.324094766456     -0.981116369696      0.220440462092
