14
OptimizedStructure
C      1.480706442419     -0.505125356947     -1.097774090477
H      1.843690040345      0.329863222962     -0.515323309467
H      2.114406966283     -0.823939481430     -1.911683522794
O     -1.425452910953      2.539124797052      0.731360860198
C     -0.696155233343      1.679256934814      0.313928016649
H     -0.240864226635      1.732821514375     -0.686814366617
C     -0.345340983283      0.438715997854      1.081164653065
H      0.710821627080      0.469399006492      1.346866707181
H     -0.920449377727      0.423537275405      2.002718538426
C      0.340348768211     -1.112108486425     -0.842490312506
H      0.037432997663     -1.945652306681     -1.462048281672
C     -0.624980381948     -0.809310105439      0.263437944261
H     -0.641574656784     -1.671953781371      0.933692559719
H     -1.632589071329     -0.744629230660     -0.157035395966
