14
OptimizedStructure
C     -0.180128110164     -0.184179918048     -0.320937342390
H     -0.743447740124      0.442483695896     -1.019467889406
H     -0.835715916865     -0.450854130457      0.513305581986
O      0.947647090577      0.543531570438      0.154559995344
C      0.690429221567      1.708538380883      0.800993102684
H      1.624174425460      2.161998057109      1.114323670120
C     -0.477225071152      2.269987200430      1.050458902209
H     -1.421155766814      1.843878473352      0.753958633854
H     -0.511550905001      3.209408118973      1.581029662803
C      0.335240914305     -1.401004785365     -1.002666170515
H      1.058004620949     -1.216202820806     -1.782295170162
C     -0.048131255134     -2.623854067281     -0.701615034913
H     -0.765743525964     -2.814955372425      0.086013796475
H      0.327602018360     -3.488774402698     -1.227661738089
