14
OptimizedStructure
C      0.994677059538     -0.599629145138     -1.427038160769
H      1.362528407190      0.381149923236     -1.168076749473
H      1.375556788791     -1.026105513546     -2.343973345123
O      0.178618990198      2.597362767386     -0.199414997995
C     -0.502453883897      1.678280165129      0.167917764944
H     -1.562642106980      1.579303641191     -0.126640886161
C     -0.029754351265      0.579368949077      1.072926980882
H      1.051211641232      0.622673861168      1.179333313256
H     -0.466442967667      0.771556693568      2.053261537017
C      0.123239667526     -1.252323540647     -0.685964539504
H     -0.215663956363     -2.232014767921     -0.996398772491
C     -0.481349745294     -0.786642727992      0.602608969849
H     -0.256098047402     -1.525441720414      1.374664084218
H     -1.571427495608     -0.787538585097      0.496794801351
