14
OptimizedStructure
C      0.340561291964     -0.059409584583     -0.643720927302
H      1.336865376862     -0.294915741108     -0.257043807892
H      0.438517551497      0.721882653835     -1.405275322074
O     -0.502282771028      0.406035441238      0.407488563560
C     -0.080868258696      1.566706254252      0.990490248259
H      0.636479556558      2.147875179847      0.419241672274
C     -0.549867782581      1.953495740051      2.158359522616
H     -1.261241741965      1.351912774956      2.700894193341
H     -0.244808429635      2.894491794299      2.589089440445
C     -0.295491234614     -1.270840975792     -1.225195604655
H     -1.318985206325     -1.139650683416     -1.540845366839
C      0.319851481763     -2.426946813692     -1.358346426211
H      1.342736637687     -2.565539886449     -1.031966520951
H     -0.161466471487     -3.285096153439     -1.803169664569
