14
OptimizedStructure
C     -0.897206879262     -0.100192508217     -1.684558678677
H     -1.151319840343     -0.247849641093     -2.723447817696
H     -1.261206154074      0.812377880464     -1.234084078280
O      1.527502289115      2.064947769990      1.554569337171
C      0.876071096519      1.430104138991      0.768370644376
H      0.952825684497      1.588481938091     -0.318216308456
C     -0.083351248122      0.346550462748      1.163445078276
H     -1.099452068403      0.669604942095      0.939406492276
H     -0.012111679275      0.190925771822      2.236267288638
C     -0.189802362920     -0.991310625936     -1.021611335007
H      0.139958975346     -1.886718616903     -1.531418804856
C      0.211875745798     -0.944601701061      0.421682374539
H     -0.294243605538     -1.766925349316      0.932854313978
H      1.280460046662     -1.165394461676      0.496741493719
