14
OptimizedStructure
C      0.068580429323     -0.537394157693     -2.077552142910
H      1.062151849486     -0.127476674206     -2.196496253510
H     -0.531273325940     -0.626119739387     -2.972165932949
O      0.779492779291      2.010098963801      0.054878234542
C      0.015849543360      1.657219881121      0.912006675576
H     -0.568809440675      2.381687085597      1.504277696945
C     -0.215800845832      0.231367213597      1.319666581973
H     -1.287746338942      0.063341413612      1.430958315307
H      0.208597726150      0.130552816746      2.320004038551
C     -0.385949280129     -0.891614482198     -0.894773180747
H     -1.390295509193     -1.282401264260     -0.786455664337
C      0.395536825504     -0.780415091742      0.373151569954
H      1.417884493374     -0.474941715084      0.146702352367
H      0.431781094221     -1.753904249905      0.865797709239
