14
OptimizedStructure
C      1.270894848120     -0.637954839886     -1.207827747842
H      1.614210454334      0.317045409106     -0.835178815863
H      1.838010247385     -1.060070232740     -2.024497037506
O     -1.158110493124      1.774012547564     -0.768146365979
C     -0.458664522911      1.736110742412      0.207151712135
H      0.051573826168      2.635437027690      0.592432524050
C     -0.228265952883      0.513861558795      1.047826736152
H      0.818716165328      0.463365569724      1.344438466792
H     -0.794815857722      0.673892614512      1.966416219476
C      0.212306159470     -1.249805414089     -0.720322807534
H     -0.098210339751     -2.195751969674     -1.144190973824
C     -0.666078456813     -0.773431222632      0.394089242432
H     -0.726813853993     -1.561376042403      1.148241803721
H     -1.674752223606     -0.635335748381     -0.000432956208
