14
OptimizedStructure
C     -0.259722719255     -0.226538405357     -1.807373988783
H     -0.214346810766     -0.476932430706     -2.857595610969
H     -0.517155920667      0.794304965816     -1.570920578145
O      0.429431402366      2.565927340812      0.222642756522
C      0.658296442740      1.481148720769      0.685657695620
H      1.687065742327      1.139389963919      0.898717981552
C     -0.392348344254      0.475346761931      1.052536796468
H     -1.357009748179      0.781994959565      0.656203183559
H     -0.464900155965      0.481053274239      2.140375284313
C     -0.002202366814     -1.128780404848     -0.883119754224
H      0.255996400702     -2.137617832127     -1.177399399997
C     -0.031815934692     -0.923359643304      0.600030273399
H     -0.739504127764     -1.634520444853      1.031375969365
H      0.948216140222     -1.191416825856      1.008869391320
