14
OptimizedStructure
C      0.007982130957     -0.177307368794     -0.708847492759
H      0.487550234570      0.384204708406     -1.518013189676
H     -1.074341633672     -0.163909985138     -0.870332031686
O      0.330505013451      0.425103138441      0.542223445694
C     -0.012724880732      1.743637665440      0.633372255793
H     -0.197369099883      2.249073507823     -0.309828099168
C     -0.079718678827      2.352729147959      1.798657891563
H      0.109488315225      1.821602416685      2.717529838563
H     -0.307712128672      3.405689136043      1.856217516307
C      0.515519097853     -1.574347109096     -0.677957480548
H      1.560233886188     -1.672785609741     -0.426331266609
C     -0.229752867709     -2.628504238147     -0.935335043162
H     -1.280945774366     -2.534157905745     -1.176366431803
H      0.171286385617     -3.631027504135     -0.924989912509
