14
OptimizedStructure
C     -0.604883483549     -0.209323824008     -1.752514337700
H     -0.763760055231     -0.415837941608     -2.800779611643
H     -0.901697336428      0.772829562237     -1.411875437538
O      1.694305431354      1.472924312300      0.195505744397
C      0.612422573616      1.544697349154      0.711487108419
H      0.157087021836      2.514450939563      0.975701477952
C     -0.225837803311      0.364491646154      1.109163586077
H     -1.271330279264      0.559691501914      0.873488576946
H     -0.166616982728      0.311090581206      2.197298085559
C     -0.059420303975     -1.101682909359     -0.953265986502
H      0.236424186226     -2.063206464290     -1.351823760930
C      0.227595079060     -0.942449605524      0.507101379669
H     -0.239395130799     -1.771121964013      1.044236513974
H      1.305107083193     -1.036553183728      0.656276661320
