14
OptimizedStructure
C      0.024562022382     -0.659386731442      0.984905243758
H     -1.042636895088     -0.421430368012      0.967470948989
H      0.209338711159     -1.364809069626      1.797326301253
O      0.787854771549      0.489162571145      1.338798433920
C      0.514110128775      1.651455536306      0.689688194672
H      1.159901085798      2.434456818544      1.072405720241
C     -0.378030447525      1.883247160113     -0.253754162364
H     -1.019948584331      1.125493623075     -0.669215487953
H     -0.472642338581      2.880408445062     -0.657414817837
C      0.467436437426     -1.254247274376     -0.309892679228
H      1.536901362287     -1.345213604378     -0.422505983213
C     -0.354919594034     -1.680123841393     -1.245503653351
H     -1.429271191210     -1.592279345811     -1.139247601553
H     -0.002655468607     -2.146733919206     -2.153060457337
