14
OptimizedStructure
C      0.350282023736      0.265191772222     -0.838004568222
H      1.075021266857      0.348412309705     -1.649498508282
H     -0.606403708489      0.664954655406     -1.182403883904
O      0.860974289912      1.087469782613      0.210547965029
C     -0.009348053974      1.529277067864      1.153170073289
H      0.523559373472      2.141792834145      1.872480822634
C     -1.306405850696      1.309824168516      1.258380351718
H     -1.871994386497      0.699960196162      0.573432735837
H     -1.853563666232      1.758481399954      2.073364562305
C      0.220131015468     -1.154084423422     -0.401771710595
H     -0.412937079522     -1.324830490847      0.454057282213
C      0.833651325692     -2.154996895705     -0.998945977965
H      1.479940578116     -1.993737129115     -1.852333833512
H      0.717092872158     -3.177715247497     -0.672475310545
