14
OptimizedStructure
C     -1.119923594067     -0.791057756005     -1.824745037283
H     -1.105574577064     -0.627057147554     -2.892267435259
H     -2.035858371178     -1.195642622561     -1.411954066229
O      2.228566158974      1.279718998835      1.564864523773
C      1.233611257605      1.331861116790      0.892321736549
H      1.185929020582      1.929845228958     -0.031647091071
C     -0.020864574351      0.571993474463      1.207526062377
H     -0.897929093080      1.165848776886      0.954102919000
H     -0.042349493572      0.344731313572      2.270046032905
C     -0.080998009248     -0.524659746090     -1.061752790820
H      0.824909882009     -0.127671967104     -1.496922800747
C     -0.054681965525     -0.734354772578      0.418203680906
H     -0.938435984963     -1.300369059263      0.719723363088
H      0.823599343877     -1.323185838348      0.692500902811
