14
OptimizedStructure
C      1.387596238094     -1.478666244104     -1.047769683652
H      1.706618771785     -2.142646346202     -0.253806829341
H      1.964568941095     -1.509326367279     -1.960386032826
O     -1.890165376695      2.322661351616      0.292449921824
C     -0.787062199926      1.849773326600      0.225308829416
H     -0.043224495646      2.208134962874     -0.503977583137
C     -0.318832052481      0.712676140038      1.084513459303
H      0.728284150738      0.845972310666      1.352672672044
H     -0.915552052599      0.682798934883      1.992307998286
C      0.346265222580     -0.686468170857     -0.904439068557
H      0.042364149401     -0.037228360514     -1.713001545631
C     -0.480983505433     -0.609344956231      0.338399287986
H     -0.202949052014     -1.424291082333      1.009865673383
H     -1.536928738900     -0.734045499157      0.087862900902
