14
OptimizedStructure
C     -0.180450816375      0.134265213227     -1.241523473140
H      0.730050752022      0.716965866639     -1.403576618873
H     -0.724629388535      0.100566422480     -2.187872034056
O     -1.041677026551      0.817609851986     -0.345337439296
C     -0.478823178026      1.395390952180      0.750321613846
H     -1.240769284880      1.937468490113      1.299489593218
C      0.777268122856      1.358808623972      1.149751688285
H      1.549725292464      0.807756556503      0.639321263656
H      1.064334368420      1.887900670950      2.045817876764
C      0.158093545263     -1.258332837319     -0.818055687850
H      0.854438704085     -1.761903865955     -1.475111078089
C     -0.344623341561     -1.873249562233      0.229999364342
H     -1.044965080577     -1.373041535925      0.880575387147
H     -0.077972668606     -2.890204846619      0.476199544044
