14
OptimizedStructure
C      0.657739055183     -1.144741927619     -1.712716857171
H      1.544055926089     -1.553973247285     -2.175135901144
H     -0.116129911814     -0.791792560251     -2.382367108808
O     -0.474721002534      2.885193273443      0.488628843680
C      0.074291287029      1.816611736652      0.449311363348
H      0.956645971508      1.633048320892     -0.184452893869
C     -0.374506211953      0.614216855447      1.223746420548
H      0.426618497771      0.319783400645      1.903148347101
H     -1.246324867728      0.874538200942      1.817346883225
C      0.516885781499     -1.083056885677     -0.405374296216
H      1.303970346397     -1.441808431508      0.245560766338
C     -0.691073045161     -0.547536180000      0.291570535124
H     -1.436021663673     -0.234790583157     -0.444418604173
H     -1.141430162613     -1.345691972525      0.885152502017
