14
OptimizedStructure
C      0.689264130511     -0.006352463237     -1.217048272487
H      1.688967471156     -0.123964488450     -1.639639944407
H      0.111321866829      0.611830124444     -1.912266938385
O      0.875560477205      0.677444226314      0.011157854123
C     -0.250449924773      1.260764629587      0.522266372695
H     -1.102458362427      1.307714999529     -0.147429591241
C     -0.269467235775      1.748399521979      1.745179952558
H      0.594298922215      1.683160193161      2.387138666829
H     -1.149966445618      2.241757001365      2.125716952064
C      0.046815218568     -1.347175377783     -1.070752331563
H     -0.127282264062     -1.859192770379     -2.007370952550
C     -0.278654632949     -1.906769439269      0.074429977696
H     -0.096222123530     -1.401641558647      1.009463057507
H     -0.731727097350     -2.885974598613      0.119155197160
