14
OptimizedStructure
C      0.292864602829     -0.169592322821     -0.234183684294
H      0.387257452383     -0.716019473179      0.708885814187
H      1.211273882927      0.402844865947     -0.397958293741
O     -0.811841349698      0.726771302108     -0.173384538864
C     -0.770576912274      1.677086507750      0.794333896949
H     -1.663771482899      2.289250796300      0.738286091497
C      0.167091796035      1.890458659994      1.697733538502
H      1.063929188558      1.299333761537      1.779840488234
H      0.048666217397      2.697480551194      2.404761435318
C      0.043675286844     -1.101016040033     -1.366164121971
H     -0.146477772279     -0.625167744307     -2.315782024220
C      0.053647803781     -2.412106255110     -1.248215932479
H      0.234500655521     -2.893988073721     -0.295885787452
H     -0.110239369125     -3.065336535659     -2.092266881667
