14
OptimizedStructure
C      0.130211880012      0.320524004971     -1.210424278626
H      1.223021625799      0.394953638204     -1.204520963309
H     -0.234312195560      0.667269071398     -2.178147835345
O     -0.438479335902      1.222915833457     -0.265015318688
C      0.039343425284      1.081379508408      1.007700753784
H      0.978212901602      0.545533761849      1.102040644739
C     -0.600844058651      1.595366046783      2.036725129746
H     -1.535253659285      2.118296876957      1.909499609294
H     -0.190455777609      1.522090602129      3.031911983888
C     -0.304236632605     -1.082190775400     -0.959017798203
H     -1.371597338857     -1.221438720229     -0.884379548444
C      0.525700788250     -2.096135647440     -0.828075847811
H      1.598403543272     -1.963332123424     -0.898666292485
H      0.180284834250     -3.105232077662     -0.659630238541
