14
OptimizedStructure
C     -1.875214614972     -0.985954769975     -1.259060435429
H     -2.436621882911     -0.994296399094     -2.181913897113
H     -2.389112917298     -1.349322409327     -0.378221176816
O      1.854989991450      0.032033190447      2.259359230054
C      1.471166191801      0.970898983986      1.616263050351
H      1.739618305478      2.007810264139      1.881188360324
C      0.603474908748      0.878930493395      0.397712487341
H      1.144934691899      1.343483086870     -0.429207639433
H     -0.275341590174      1.505143912808      0.559970857234
C     -0.628122327936     -0.568528679525     -1.203363208943
H     -0.132163222898     -0.210103558193     -2.096595546458
C      0.192022684447     -0.531931577363      0.040827263445
H     -0.364327392756     -0.964642998124      0.874160108245
H      1.094697175124     -1.133519540047     -0.081119452800
