14
OptimizedStructure
C     -0.533387917557      0.092327380754     -1.289692438928
H      0.081906293523      0.814692537051     -1.836590519266
H     -1.463683420484     -0.031309684035     -1.847444378096
O     -0.914266557555      0.623539160503     -0.031312635923
C      0.098708240215      1.206235533267      0.678434966061
H      1.020986969230      1.373792273986      0.132594970806
C     -0.064918857959      1.554501474270      1.937641521844
H     -0.994211431867      1.371259110532      2.452710224383
H      0.727003142374      2.049221556803      2.477642475948
C      0.175794322972     -1.219670838397     -1.202113619018
H      0.497325922869     -1.613666271000     -2.156634809563
C      0.396104371680     -1.885239725162     -0.089009898627
H      0.066980353308     -1.498354736984      0.862157557698
H      0.905658569251     -2.837327771587     -0.088383417321
