14
OptimizedStructure
C      0.520551522112     -1.013933202298     -1.819528608621
H      1.343859682261     -1.454977964921     -2.363287545032
H     -0.190624711472     -0.438315174981     -2.395945507636
O     -0.100327336257      2.080026880557     -0.560839656141
C      0.160745524039      1.794605906060      0.576138618778
H      0.684336007818      2.497282529593      1.246632739276
C     -0.211763411571      0.502398460280      1.242727948921
H      0.644544446396      0.135505134045      1.810012529272
H     -0.975241073448      0.752709744174      1.981239177550
C      0.391579403038     -1.150478861755     -0.517316333003
H      1.121863746845     -1.713120302839      0.051258821737
C     -0.719013942137     -0.554258927362      0.283822370701
H     -1.448717158379     -0.097758326214     -0.386198825662
H     -1.221792699244     -1.339685894339      0.851284269861
