14
OptimizedStructure
C     -0.021661056856      0.347598297173     -1.212711889461
H      0.372438122626      0.518276934739     -2.216901722935
H     -0.985949022004      0.857764587327     -1.144196247901
O      0.914768651990      0.959227373971     -0.340456728660
C      0.485754350483      1.297416653323      0.905609044463
H      1.281490442140      1.816060854300      1.428873316654
C     -0.688533657411      1.076079080393      1.463015941485
H     -1.488057960751      0.541415615902      0.977443005714
H     -0.872727154838      1.425006421881      2.467805880776
C     -0.189913907606     -1.120898041126     -0.992535840237
H     -0.940284677595     -1.578130585963     -1.623480611853
C      0.510254982591     -1.843657151994     -0.145984260781
H      1.263817596636     -1.388306115092      0.477507331180
H      0.358603290594     -2.907853924833     -0.043987218445
