14
OptimizedStructure
C     -1.615914471636     -0.243993990423     -1.477485674885
H     -2.298378505005     -0.562789654267     -2.251355285547
H     -1.840846485545      0.700683301299     -1.003333951294
O      2.213886071509      0.199580220276      1.930662068662
C      1.285248332654      0.918506571078      1.678381028062
H      1.125002403707      1.871487240687      2.210658362337
C      0.240273572001      0.641842856886      0.640344975107
H      0.230937750666      1.481724167300     -0.056107328458
H     -0.732577912361      0.654853600471      1.134231913764
C     -0.573082660026     -0.974048617084     -1.140503799892
H     -0.395205967648     -1.912681481263     -1.648545437133
C      0.446404688881     -0.656850330041     -0.094941672266
H      0.476788013396     -1.471374330587      0.632413857448
H      1.437465169407     -0.646939554332     -0.554419055905
