14
OptimizedStructure
C     -0.343539503702      0.008410669409     -1.088837797379
H      0.384693658482      0.685957975056     -1.544441779901
H     -1.302937976404      0.179489429388     -1.587181465368
O     -0.500067622310      0.296931706982      0.292234082282
C      0.094548129385      1.434027340382      0.753630872745
H      0.790632898387      1.914311542878      0.072896634501
C     -0.156169244387      1.892656995309      1.962757346126
H     -0.854119724726      1.395868250389      2.616839642303
H      0.344999213429      2.774960293646      2.328248915823
C      0.090198239502     -1.404308135116     -1.298094062200
H      0.172043514828     -1.692092526146     -2.337367367353
C      0.354629225369     -2.256763999171     -0.332599266703
H      0.260803841384     -1.958882223290      0.699407105394
H      0.664285350762     -3.270567319718     -0.537492860270
