14
OptimizedStructure
C      1.329054662150     -1.101960915084     -1.346597856104
H      2.107141927133     -1.484823136337     -0.697603877303
H      1.554718836287     -1.073675415636     -2.402615115198
O     -1.536185075441      2.379700804249     -0.166927106229
C     -0.583302616171      1.723814798017      0.159206782364
H      0.418377488277      1.899399039084     -0.261591360224
C     -0.631746448926      0.611860840111      1.164832849403
H      0.049806777664      0.880340101525      1.970720539771
H     -1.631424626180      0.562275313131      1.586475990390
C      0.167822422964     -0.704978055516     -0.871195268841
H     -0.594643477099     -0.327481038194     -1.537311390780
C     -0.211926173074     -0.750628759711      0.574712777341
H      0.615064115334     -1.175954473779      1.146692106169
H     -1.052757812917     -1.437889101858      0.681200929241
