14
OptimizedStructure
C      0.252818031682     -0.102552492419     -0.917428409868
H      1.042643509486      0.495240749206     -1.377252358735
H     -0.675207535546      0.068396345982     -1.473138792785
O      0.072693158120      0.303348907993      0.439935186374
C     -0.296956984728      1.608857896072      0.588634619592
H     -0.681584014792      2.095357299992     -0.302319374402
C     -0.212439635008      2.213662227871      1.755238309242
H      0.175566057210      1.702622925610      2.621617352088
H     -0.549133522200      3.231993684574      1.872414173557
C      0.610440675702     -1.556584070561     -0.920460409082
H      1.590444997023     -1.818949652805     -1.288481618299
C     -0.209130059707     -2.484787867419     -0.471054882358
H     -1.183858550398     -2.227720573226     -0.081234548937
H      0.063703873156     -3.528885380870     -0.446469246389
