14
OptimizedStructure
C      0.376040530139     -1.079604049277     -1.886375682854
H      1.177102250822     -1.332374238575     -2.565522543342
H     -0.596850164326     -0.907605130708     -2.329388407407
O      0.552203157968      2.025685428317     -0.445276185591
C     -0.100994657871      1.845569631144      0.545852205283
H     -0.707591019105      2.652589080916      0.991638514499
C     -0.159763165506      0.537734415301      1.292791654385
H      0.819717745741      0.371864087878      1.742680877586
H     -0.882198276629      0.600374774346      2.103481491835
C      0.570747313763     -0.972261495138     -0.589616359922
H      1.554906689591     -1.133280923109     -0.168695595802
C     -0.500318725471     -0.644669156093      0.397063010982
H     -1.438278423397     -0.452792931008     -0.130809896372
H     -0.664723255718     -1.511229493993      1.042176916720
