14
OptimizedStructure
C     -0.152789755494     -0.586129639723      0.820976827963
H     -1.177808867925     -0.205235782575      0.803925738040
H     -0.106303271123     -1.396743458448      1.549351943200
O      0.719592757241      0.413814391309      1.330632817616
C      0.598125328681      1.664845455629      0.815244327404
H      1.294961874463      2.328305322655      1.315169931754
C     -0.210767606821      2.089862120304     -0.136641852035
H     -0.899415467664      1.452030583565     -0.665276872648
H     -0.188421403800      3.129932996719     -0.425036541354
C      0.267233538258     -1.072610353856     -0.535465272746
H      1.033006435720     -0.486020186529     -1.015454402382
C     -0.243222129899     -2.136610313395     -1.118884451699
H     -1.010543751653     -2.733297243602     -0.641887646405
H      0.076352320017     -2.462143892055     -2.096654546709
