14
OptimizedStructure
C      0.636531578566      0.333409279794     -0.724269367425
H      1.486077678759      0.441125359809     -1.399883892537
H     -0.264010103504      0.644625610265     -1.261116149562
O      0.896764095252      1.241457909185      0.337999532356
C     -0.146787814168      1.570223294658      1.143214493373
H      0.183554779249      2.291178603958      1.882662525521
C     -1.391037266475      1.133099756962      1.100773873348
H     -1.744669758650      0.403201969929      0.391750801460
H     -2.108129194000      1.506902692131      1.815944368270
C      0.520055465299     -1.084951186188     -0.247084156063
H      0.455929421720     -1.204701005798      0.821763158603
C      0.498496750118     -2.125928232121     -1.052653011642
H      0.565847531508     -2.014337127407     -2.127527891553
H      0.411376836327     -3.135306925177     -0.681574284149
