14
OptimizedStructure
C      0.321909045777     -0.037380423823     -0.510561435732
H      0.914653277817     -0.389122048280      0.339753563082
H      0.954926049177      0.616396599057     -1.123656791220
O     -0.814962961842      0.694848065049     -0.056616966981
C     -0.503533420764      1.791637022091      0.713206139217
H     -0.653656231103      2.737746232589      0.201229871006
C     -0.115087043832      1.713308590457      1.967681253711
H      0.025537353968      0.763026626152      2.459731151664
H      0.074665001422      2.604250739763      2.547100226356
C     -0.173973459293     -1.184515527332     -1.317729275147
H     -0.849729896538     -0.920236348355     -2.116397878564
C      0.169988582636     -2.436099188648     -1.098325449731
H      0.839447967456     -2.706808502708     -0.291656721363
H     -0.190184264882     -3.247051836013     -1.713757686298
