14
OptimizedStructure
C      1.294393715203     -0.865979084648     -1.267954260107
H      2.092634489496     -0.518812894211     -0.624732831432
H      1.563120957680     -1.068240684657     -2.293634546339
O     -0.334207171812      2.563010776572     -0.408724266627
C     -0.838990072539      1.647310938207      0.181205896418
H     -1.924972044793      1.447146553909      0.135310665931
C     -0.087199809027      0.667730290611      1.032169950367
H      0.976125508835      0.882502758798      0.978995350966
H     -0.409750668967      0.794358206699      2.065439059471
C      0.062938294930     -1.024769326615     -0.829642936236
H     -0.704674121465     -1.371744467945     -1.506233665710
C     -0.374373129685     -0.756442285848      0.587415022263
H      0.130082094545     -1.446266116991      1.266454753714
H     -1.445128042399     -0.949804663881      0.683931807324
