14
OptimizedStructure
C      0.254128669218      0.105855293074     -0.916690117212
H      1.348895370643      0.119319241634     -0.892733692931
H     -0.085677409875      0.946807667212     -1.524925451481
O     -0.249562275672      0.241103391109      0.412836231622
C      0.164199992641      1.372278667584      1.054980991286
H      1.021811438155      1.875723848936      0.619705889281
C     -0.434325862577      1.793572733831      2.149592166111
H     -1.285300975254      1.271283655742      2.556258900382
H     -0.071566522702      2.663511419920      2.674667735677
C     -0.246465697335     -1.192478058411     -1.469724459036
H     -0.913486940589     -1.139258328990     -2.316444293597
C      0.077961382019     -2.355041438071     -0.942071661537
H      0.728390194626     -2.415314096565     -0.080997358949
H     -0.309001363295     -3.287363997007     -1.324454879617
