14
OptimizedStructure
C     -1.819840905096     -0.642584892589     -0.876658621812
H     -2.612651621518     -1.195031660212     -1.358054228657
H     -2.135272507030      0.106912255468     -0.163480593882
O      1.655458526722     -0.382678841180      2.093340988721
C      1.055402196262      0.610218205579      1.783366759830
H      0.900412435204      1.440714683533      2.492307490773
C      0.439394062637      0.867852791011      0.438745479302
H      0.821783186065      1.824227559864      0.082507113057
H     -0.623806221940      1.031654116633      0.611620861245
C     -0.556353466142     -0.886991706005     -1.151716210434
H     -0.319466214113     -1.657136643688     -1.874527893134
C      0.664258422227     -0.237131126757     -0.576153313073
H      1.261632860021     -1.015281821995     -0.095962893944
H      1.269049246703      0.135257080339     -1.405334937993
