14
OptimizedStructure
C     -0.349019508457      0.082204835678     -1.250806167982
H      0.488031250155      0.696759236009     -1.596977200419
H     -1.069020505784      0.015254619844     -2.071957910840
O     -1.020134962016      0.720668430054     -0.170126864040
C     -0.246261969443      1.619992631978      0.529544337853
H     -0.408382522244      2.653323984832      0.235127180039
C      0.574214688157      1.279547884537      1.500239680288
H      0.733878322741      0.250528338189      1.776133475008
H      1.121534364897      2.034380774333      2.046226663136
C      0.132087530486     -1.291373682042     -0.906701916951
H      0.719474569688     -1.765159784419     -1.681812007644
C     -0.142068468131     -1.922759164810      0.213643089005
H     -0.746117004736     -1.448824730367      0.971098189805
H      0.211784214689     -2.924543373816      0.406369452742
