14
OptimizedStructure
C     -0.882662576188     -0.023932066063     -1.652994649240
H     -1.177338997956     -0.131556105520     -2.686307806068
H     -1.138606024561      0.914547376643     -1.182667100741
O      1.066563445335      2.407429774720      1.391394600245
C      0.870012037537      1.423294670813      0.729756437003
H      1.339721428474      1.276052760312     -0.255946735413
C     -0.028119854220      0.297417843659      1.169359128955
H     -1.060902292003      0.623381927335      1.048530393768
H      0.119108824344      0.144475585018      2.235917826755
C     -0.247963536357     -0.989114583804     -1.020316237040
H     -0.018666597353     -1.905953073452     -1.546999607682
C      0.202049326223     -0.988904813256      0.408425653592
H     -0.309443403801     -1.806046074788      0.921393900749
H      1.266248220526     -1.241093221619      0.440454195117
