14
OptimizedStructure
C     -1.806216694748     -0.375340411604     -1.198564057202
H     -2.559910136791     -0.735819759285     -1.882868272191
H     -2.104349609188      0.424195999061     -0.535458142983
O      1.856342953541      0.044947336923      2.318055339167
C      1.401843964143      0.882371728561      1.585574035146
H      1.832496470017      1.895496364535      1.524996082598
C      0.222196229104      0.632917470602      0.684722826762
H     -0.060766183128      1.531216293780      0.140085149810
H     -0.622696479373      0.335134036870      1.304383347124
C     -0.594625188076     -0.889694147389     -1.179687482538
H     -0.343173578597     -1.689317880332     -1.863907081381
C      0.534041168370     -0.489464677187     -0.283794328492
H      0.856923425091     -1.357977173405      0.294322516402
H      1.387893659634     -0.208665181130     -0.907859932221
