14
OptimizedStructure
C      0.151844813790      0.294915575942     -1.626950261820
H      1.222370050085      0.464138500224     -1.601808132913
H     -0.351064874072      0.717018395779     -2.484299305604
O     -0.265175411427      1.622593215297     -0.397911160623
C      0.219113325609      1.274347542668      0.734061960660
H      1.226014761474      1.607397677669      0.998814062918
C     -0.380766606450      0.329774220340      1.527507150316
H     -1.426395661665      0.102839707996      1.389231078535
H      0.037331915239      0.078140002210      2.493959756363
C     -0.371115576053     -0.828737170662     -0.994116856126
H     -1.379124380847     -1.133258829385     -1.221438483110
C      0.227950500676     -1.286834936547      0.157304285741
H      1.291489556623     -1.139528521831      0.303678927658
H     -0.202472412983     -2.102805379699      0.721966978007
