14
OptimizedStructure
C     -0.900144255120     -0.459600784292     -1.748975384513
H     -0.874600689886     -0.501613816809     -2.827152368053
H     -1.793698968389     -0.031576809559     -1.311981110849
O      1.927029795808      1.263642691216      0.266389767618
C      0.879880085952      1.487550885912      0.810038705766
H      0.617466869456      2.494390208962      1.176808065926
C     -0.179886482779      0.460988771491      1.081725268693
H     -1.129864383051      0.840161943091      0.706525397147
H     -0.289880178104      0.393615084819      2.165077959236
C      0.098098089804     -0.906975261930     -1.015808213840
H      0.969183974640     -1.325307157923     -1.497961055842
C      0.132239897550     -0.894742896545      0.489249984684
H     -0.579167300431     -1.626868294982      0.877621851199
H      1.123343544550     -1.193664563451      0.828441132828
