14
OptimizedStructure
C      0.756341141420     -1.157845202057     -1.664827544066
H      1.681286980026     -1.530834872560     -2.079480571382
H     -0.002148227346     -0.856138622680     -2.376536528875
O      0.251277935083      2.889093528858      0.964394836916
C      0.027966957098      1.838239830059      0.425367861677
H      0.152611203930      1.698264065459     -0.661234599961
C     -0.442516205983      0.614265268939      1.166859364301
H      0.306904062670      0.370943501311      1.920083534700
H     -1.342965706869      0.885595880057      1.715151436110
C      0.553667090884     -1.084339367929     -0.366164939612
H      1.327496535207     -1.393090282245      0.324608183242
C     -0.699506707756     -0.581452085403      0.269592121954
H     -1.424789786177     -0.313394974276     -0.503379696232
H     -1.145625272189     -1.379306667534      0.865566541228
