14
OptimizedStructure
C     -1.629918080047     -1.115761407830     -1.503595049278
H     -1.871307375349     -1.212925533259     -2.551980970020
H     -2.399391475831     -1.412904158180     -0.802141285526
O      2.509675492122      0.247087737520      1.314127795195
C      1.686737670488      1.114201587520      1.199885737655
H      1.904860944332      2.161372871199      1.468028631027
C      0.290274653517      0.919451573826      0.684986102817
H      0.185718773150      1.569251715890     -0.185767540802
H     -0.393127391166      1.329040693446      1.428304102806
C     -0.460306362644     -0.672807285434     -1.093553670731
H      0.298081283222     -0.385031643771     -1.810105845165
C     -0.065067822034     -0.522136219372      0.335964228281
H     -0.870069739449     -0.882207581856      0.978132886931
H      0.813839429689     -1.136632349699      0.537714876811
