14
OptimizedStructure
C      0.129923235421      0.142122108384     -0.900160963662
H      0.731427034536      0.318971457900     -1.793979520534
H     -0.919606906232      0.351801950345     -1.134121345322
O      0.594587005521      1.087718851354      0.063855920193
C     -0.154314734374      1.146655532607      1.216708550429
H      0.240030277657      0.554757789076      2.036168523011
C     -1.221924972853      1.906931858355      1.329083653396
H     -1.589674391809      2.487139288525      0.496398319442
H     -1.759388107027      1.980862426004      2.262736760251
C      0.289269940410     -1.267058462937     -0.436635868011
H     -0.301813935766     -1.549679339179      0.421025587259
C      1.089432368425     -2.137643879898     -1.016228623573
H      1.690451441233     -1.865665358090     -1.874476551284
H      1.181601744859     -3.156914222446     -0.670374441593
