14
OptimizedStructure
C      0.308062197565     -0.096415121547     -0.893068367407
H      1.009605324747      0.201073102179     -1.677661623949
H     -0.692241056157      0.236141060668     -1.181915991843
O      0.727709228322      0.531704887512      0.318663546972
C     -0.089374267142      1.498019203623      0.823884800562
H     -1.055259267415      1.603754313918      0.339348793381
C      0.279906717919      2.238539975998      1.849081488929
H      1.245216062619      2.113120424516      2.312035840653
H     -0.386944710266      2.983007311640      2.254791344904
C      0.331907833041     -1.571806925078     -0.697451978223
H      1.259954090931     -1.962076484706     -0.309974934515
C     -0.685046637841     -2.363994896479     -0.964481412513
H     -1.620969272969     -1.977608404877     -1.348574726282
H     -0.632526243355     -3.433458447366     -0.824676780668
