14
OptimizedStructure
C     -1.538845717947     -0.962826927412     -1.666779020124
H     -1.844850160989     -0.837624893115     -2.695109735247
H     -2.192968584882     -1.552281240395     -1.036860795915
O      1.930384127765      1.288513263898      2.460027327145
C      1.584735937578      1.034434583470      1.338452773763
H      2.308744159346      0.943997597461      0.508496565708
C      0.167845311549      0.788736754810      0.918805522128
H     -0.122169671970      1.587250943583      0.236187431200
H     -0.483895947665      0.848087194075      1.785001856806
C     -0.427440487678     -0.435678915878     -1.199207677806
H      0.212043425505      0.150914132097     -1.846286870503
C      0.041107651819     -0.569480863954      0.211811999103
H     -0.646431927414     -1.209051693476      0.765675744615
H      1.011741884983     -1.074989935163      0.219784879127
