14
OptimizedStructure
C     -1.860223812493     -0.594470438880     -1.112653637352
H     -2.575671091679     -0.689577154866     -1.915306487888
H     -2.270124400963     -0.503488986745     -0.115630503114
O      1.245436656824      0.669277996685      2.833285249835
C      1.403549965852      0.779171303748      1.647667953408
H      2.404824488557      0.912542822865      1.200047940956
C      0.298419858480      0.720096643057      0.638228913966
H      0.313792753526      1.628030937046      0.034907447596
H     -0.660509679876      0.663384542805      1.144508834821
C     -0.562874825823     -0.593784362389     -1.338624739820
H     -0.197726825041     -0.695236842988     -2.350961566108
C      0.492613971479     -0.483269997496     -0.270320719578
H      0.489698615857     -1.389309776334      0.341084836541
H      1.478794325300     -0.423366686509     -0.736233523263
