14
OptimizedStructure
C     -0.111817854687      0.070270273085     -0.894982141886
H     -0.342308563242      0.469820154357     -1.886398120481
H     -1.013139491600      0.106371317657     -0.286964579881
O      0.921190690874      0.892272441295     -0.345604173905
C      0.673072384310      1.622653154662      0.770350744700
H      1.583326219535      2.139338526792      1.059217091796
C     -0.438312645136      1.764339317182      1.466986708429
H     -1.374793442446      1.285931088459      1.231977466209
H     -0.430613234097      2.401598027449      2.337789857121
C      0.400640152964     -1.324581229327     -0.985260555249
H      1.337288004309     -1.435658907361     -1.509571691891
C     -0.218931945537     -2.364592527274     -0.467492780508
H     -1.155322038880     -2.259497566018      0.065801935288
H      0.169721763634     -3.368264070957     -0.555849759742
