14
OptimizedStructure
C      1.342039555767     -1.537980032839     -1.042064340381
H      1.635432649311     -2.230003175908     -0.262300321731
H      1.907276708485     -1.582194309302     -1.961461433584
O     -1.935570192130      2.057986269823     -0.044084280385
C     -0.770896290918      1.856226737093      0.175218457462
H      0.021299497726      2.464638459525     -0.289595926963
C     -0.287945298710      0.748488384908      1.071655060885
H      0.757804353689      0.884841218524      1.340538275882
H     -0.883911163632      0.753292821717      1.981378457684
C      0.342655978771     -0.698253450323     -0.874841748333
H      0.061884441281     -0.017523154874     -1.666555491881
C     -0.469336235698     -0.595092143873      0.374888198855
H     -0.192023132873     -1.397198845739      1.061679157991
H     -1.528710871067     -0.707228778732      0.135545934499
