14
OptimizedStructure
C     -0.287377237638     -0.169725873099     -0.997135652943
H     -0.008898840789     -0.220115173792     -2.052631920569
H     -1.345951482741     -0.430624143092     -0.899925641894
O     -0.092220399322      1.196138327099     -0.615548577322
C     -0.890072823352      1.665799839968      0.398176749231
H     -1.603974527643      2.411699858604      0.059184985583
C     -0.787368235649      1.324744888079      1.665967082678
H     -0.067202836426      0.602476561569      2.012855625981
H     -1.431885124678      1.775784120475      2.406348192300
C      0.563609427731     -1.104826173680     -0.205134908383
H      0.297514388010     -1.232202775595      0.831832755206
C      1.589695557772     -1.753628269222     -0.716799051610
H      1.869932558376     -1.634438037482     -1.755536073172
H      2.194199576348     -2.431083149830     -0.131653565085
