14
OptimizedStructure
C      0.714774490730     -0.602928526531     -1.630741876224
H      1.403087188094     -0.997346363616     -2.363655296757
H      0.291789270315      0.366160871437     -1.852355707369
O      0.477905006481      2.551680348856      0.001853177042
C     -0.332304460439      1.696459304260      0.235987514775
H     -1.344641014363      1.710831214393     -0.207627261176
C     -0.109787731768      0.539797784998      1.162780012649
H      0.927333266006      0.520701955731      1.488153186054
H     -0.733884775098      0.723791008798      2.038325081074
C      0.429807289208     -1.264542615154     -0.527795896133
H      0.889524075679     -2.226572870630     -0.351304796187
C     -0.515550844385     -0.788036579931      0.543564216990
H     -1.525496797911     -0.691640715037      0.131777918071
H     -0.572554962548     -1.538354817574      1.331039727192
