14
OptimizedStructure
C      0.320868221395      0.128363792287     -1.223526514356
H      0.904384874252      0.113037551982     -2.147113539463
H     -0.740360891405      0.213154585985     -1.483906279685
O      0.765027611564      1.297632216474     -0.535932353045
C     -0.083330400814      1.761681472653      0.443413564340
H     -0.570172937487      2.694524582181      0.173264035597
C     -0.252953350356      1.189538690337      1.616534365402
H      0.234606028027      0.265052532618      1.877324622156
H     -0.905278945518      1.634845091764      2.353838152813
C      0.571011880050     -1.121839875736     -0.450061111053
H      1.580800557311     -1.238583760878     -0.087721467180
C     -0.342219219738     -2.045953265362     -0.235695398738
H     -1.356598836809     -1.930881704841     -0.597007586559
H     -0.125784590472     -2.960571909465      0.296589509772
