14
OptimizedStructure
C      0.015538125676     -0.452427369826     -2.040806672467
H      1.035428261786     -0.114708531548     -2.170774248844
H     -0.606299130013     -0.463601191360     -2.924494526331
O      1.088653354651      2.081350129363      0.575816379202
C      0.016016343422      1.597742359753      0.820128987452
H     -0.922955343411      2.141140469134      0.627719502104
C     -0.142719136893      0.210766161422      1.389010919591
H     -1.182019928917     -0.000076400523      1.635544507043
H      0.442811227042      0.146464977397      2.303740340320
C     -0.437509878861     -0.824680200360     -0.862490565998
H     -1.463653550732     -1.149454860912     -0.746453443243
C      0.378137129575     -0.810701539065      0.389613623428
H      1.413737281252     -0.562389637027      0.151760142790
H      0.364835245424     -1.799424366448      0.851685054952
