14
OptimizedStructure
C     -0.089042230571     -0.118727358344     -1.873958327899
H      0.590851547510      0.697600624751     -1.677702128284
H     -0.480452218858     -0.177044690229     -2.878895732702
O      0.142613919240      2.548784112181      0.472048751335
C      0.571417096637      1.463886167952      0.758030534784
H      1.652050964157      1.233604425965      0.725988698601
C     -0.265172301241      0.309482119511      1.220408486402
H     -1.319751460956      0.559690089687      1.136081253987
H     -0.036151142142      0.168688422614      2.277601105386
C     -0.440930013801     -0.985770580448     -0.946682553573
H     -1.132994634003     -1.777872258618     -1.194900816783
C      0.055384140562     -0.976339225278      0.475342690463
H      1.138893635356     -1.133154464178      0.491685790818
H     -0.386717301889     -1.812827385566      1.014952247466
