14
OptimizedStructure
C      0.584378125323      0.021537864420     -1.287949311362
H      1.441792080059      0.120137551717     -1.951912859673
H     -0.298693993939      0.397378975881     -1.814987512366
O      0.875454643939      0.861454316234     -0.173113535892
C     -0.210027927648      1.316814603982      0.515634887911
H     -1.118914054401      1.437213106329     -0.067414657659
C     -0.126470830295      1.641097125644      1.789195012092
H      0.791652420751      1.507665832378      2.338280273761
H     -0.968536967034      2.077580614431      2.304223524597
C      0.394474485372     -1.413594020668     -0.883626601093
H      1.101104746110     -2.122758720711     -1.287949143096
C     -0.554443608709     -1.829329461523     -0.068544755252
H     -1.269074855098     -1.148835833954      0.369569681456
H     -0.642694264431     -2.866361954160      0.218594996576
