14
OptimizedStructure
C      0.503177617303     -0.024442724877     -1.199709627363
H      1.326049404372     -0.127276003529     -1.913489206108
H     -0.313900543741      0.492897272556     -1.712455245217
O      0.993194219827      0.766498240588     -0.122585869924
C      0.087809285503      1.679074221363      0.372072013253
H      0.230712698264      2.684917361372     -0.013410039083
C     -0.831935930130      1.386345374364      1.266338518289
H     -0.970239607713      0.383027483368      1.633375832048
H     -1.485302830370      2.154937826318      1.653392314465
C      0.056366300645     -1.384344031842     -0.766560987501
H     -0.399224115540     -1.974543533011     -1.550394114704
C      0.216730962343     -1.876230125339      0.442286942258
H      0.691097259922     -1.286586092926      1.210742039549
H     -0.104534720684     -2.874275268404      0.700397430038
