14
OptimizedStructure
C     -0.642527371901     -0.419374510047     -1.855900446522
H     -0.406594292246     -0.473907741162     -2.907806261641
H     -1.572782483312      0.071101980468     -1.599961501106
O      0.962317538443      2.418419129193      0.270126028908
C      0.932627360662      1.365501876226      0.846158423712
H      1.842695628357      0.901899896338      1.268506561344
C     -0.306997936445      0.549046266279      1.059784326472
H     -1.146515875556      1.028082599548      0.564456854957
H     -0.514899726626      0.516480788701      2.129099562274
C      0.161931378629     -0.914144809612     -0.938370022471
H      1.082484902817     -1.394344806349     -1.237342860625
C     -0.109853175858     -0.866172470143      0.543225654912
H     -1.000633559848     -1.453087502041      0.774457142783
H      0.718747612885     -1.329500697401      1.083566537002
