14
OptimizedStructure
C      1.207506418425     -0.610339286252     -1.369375536356
H      1.518803639683      0.388984271838     -1.107427160002
H      1.686943098496     -1.052183622085     -2.230910242303
O     -0.603896850126      1.899090798072     -0.902390071290
C     -0.754108599888      1.707183794124      0.273646916389
H     -1.399060047897      2.361957045933      0.884892392420
C     -0.108692611164      0.583535969099      1.044117859276
H      0.973048613534      0.702052095826      1.000802403013
H     -0.402332314299      0.641508414272      2.089400939732
C      0.263422227388     -1.251419861743     -0.714669828855
H     -0.034448422499     -2.239284508878     -1.042343305620
C     -0.480195106791     -0.787914223172      0.500318438919
H     -0.314470591040     -1.526160886349      1.289085266701
H     -1.552519453823     -0.817010000684      0.284851927976
