14
OptimizedStructure
C      1.588006167282     -0.751634390809     -1.002146853133
H      2.178478731385     -0.501548493715     -0.130050592267
H      2.133316666292     -0.868462286385     -1.926104431763
O     -1.742228264087      2.408321313344      0.622062477125
C     -0.873829221967      1.664694440970      0.251139977499
H     -0.404678639166      1.757873832199     -0.741718714632
C     -0.344690785862      0.520026016927      1.061264013207
H      0.718359300334      0.677021809420      1.238599813762
H     -0.852793074343      0.491937979777      2.021168819759
C      0.281844024457     -0.911909801462     -0.942384917030
H     -0.262856181143     -1.172205742297     -1.838204874246
C     -0.538976489709     -0.793015052650      0.316078810456
H     -0.282248277122     -1.612252791715      0.990808861938
H     -1.597703956350     -0.908846833604      0.079487609326
