14
OptimizedStructure
C      0.562228962337      0.180743948712     -0.685320723117
H      1.020973923678     -0.099936915362      0.260269379755
H      1.318032428507      0.662865734548     -1.311412893605
O     -0.487321277054      1.132735161757     -0.493572495207
C     -0.751361846709      1.595784155818      0.753921897139
H     -1.603696845499      2.266634751452      0.704383005222
C     -0.145701840673      1.351030971816      1.900144004816
H      0.706389311944      0.701952888383      2.017354743552
H     -0.513743991588      1.825843748759      2.796555667945
C     -0.010783810382     -1.015103263248     -1.362062851503
H     -0.552256518548     -0.810732504420     -2.272880890349
C      0.112873004481     -2.242808787750     -0.902688623333
H      0.648739380484     -2.454255062936      0.014051413572
H     -0.304370880976     -3.094754827530     -1.418741634887
