14
OptimizedStructure
C     -0.363718598258     -0.036317826836     -0.985931969596
H      0.372006976344      0.560262949841     -1.534472197530
H     -1.112026693844     -0.406081047961     -1.691248795217
O     -1.080136912150      0.803669170567     -0.074643571312
C     -0.368094414598      1.828027152594      0.498484399896
H     -0.696140003732      2.807496088450      0.160897978161
C      0.570218521136      1.683463797612      1.411079224056
H      0.885260725499      0.716614850727      1.766878215967
H      1.052597886377      2.549788816691      1.839790905897
C      0.293104762508     -1.185648095590     -0.297833821143
H      1.135365943234     -0.948431241202      0.331973745634
C     -0.110660487249     -2.432359290538     -0.433044470622
H     -0.955731985155     -2.685568210863     -1.060302865062
H      0.377954279892     -3.254917113490      0.068373220872
