14
OptimizedStructure
C      0.520053736493     -0.093123427327     -0.327548994211
H      0.960502960279     -0.562458841105      0.557469880407
H      1.167933086754      0.729984873056     -0.635602952925
O     -0.768026550688      0.418089806619      0.008521979087
C     -0.814804383483      1.341006660620      1.001272849176
H     -1.841964180287      1.650343286113      1.159154156616
C      0.180191733505      1.837113934480      1.712075423126
H      1.210683882698      1.552861443555      1.578829379958
H     -0.027868417189      2.571941803442      2.474988037897
C      0.341000697989     -1.088754467056     -1.431650951489
H      0.807375395507     -0.858147066980     -2.377143640932
C     -0.367561571400     -2.189287491982     -1.283642332851
H     -0.852682315982     -2.419204142944     -0.345639883611
H     -0.514834074196     -2.890366370491     -2.091082950248
