14
OptimizedStructure
C     -0.349088103919     -0.188598404155     -0.725284265723
H      0.085982458490      0.508101802155     -1.446579572686
H     -1.379192531215     -0.397909229865     -1.026652799050
O     -0.371741802649      0.401171878865      0.573257386493
C      0.051800562740      1.692351714659      0.675907621853
H      0.381175688263      2.158863624383     -0.247773887962
C      0.055330814536      2.320970708864      1.833648705822
H     -0.278712100125      1.834191164227      2.735431851319
H      0.394831803670      3.342606574056      1.900784561176
C      0.448397638585     -1.443717065811     -0.668979927332
H      1.465489452896     -1.327648118882     -0.326555138956
C     -0.028109016948     -2.626978323050     -0.995656124805
H     -1.051466660353     -2.751786142687     -1.326033678613
H      0.575301796029     -3.521620182758     -0.955514731537
