14
OptimizedStructure
C     -0.205057514266      0.113501266989     -1.665279843194
H      0.305931292139      0.463769937914     -2.549394957138
H     -1.260463440114      0.347939519080     -1.613641390942
O      0.275827128302      1.614962636162     -0.539267479978
C      0.621784283764      1.245005685328      0.630341945254
H      1.682705292820      1.285670094240      0.895009320902
C     -0.224682105095      0.613355653005      1.503283126210
H     -1.291222903490      0.701101321913      1.373361604623
H      0.113881175180      0.330286482008      2.491009070360
C      0.294112456973     -0.944348988748     -0.925630944989
H      1.314731463431     -1.250700552363     -1.088378595872
C     -0.335441166508     -1.306133234256      0.242927306407
H     -1.406647129398     -1.192495955535      0.327491757356
H      0.114541166261     -2.021913865737      0.918169080999
