14
OptimizedStructure
C      0.968688675080     -0.235172515500     -1.354411767559
H      1.902790424204     -0.196422858468     -0.809010046722
H      1.028344199813      0.035541072140     -2.397778169304
O      0.420526375444      1.510755805042     -0.718171913767
C     -0.505023557573      1.433526614761      0.154716895669
H     -1.519788290368      1.719492076860     -0.138084969019
C     -0.344899543003      0.826597388627      1.372711887872
H      0.645115603027      0.688298472303      1.776237068788
H     -1.158626750743      0.798369396622      2.085037830996
C     -0.063264400596     -1.026764422847     -0.881385614463
H     -0.934819446498     -1.161853972642     -1.501179266762
C     -0.155611646123     -1.278379447587      0.468027434832
H      0.746326599426     -1.353090671889      1.058343362694
H     -1.029758242090     -1.760896937421      0.884947266746
