14
OptimizedStructure
C     -1.280420734860     -1.402491159615     -1.477638857735
H     -1.246819239430     -1.631870293610     -2.531841336863
H     -1.933672379852     -2.016107237394     -0.870740012546
O      2.242568623233     -0.413134086144      0.476083920540
C      1.827449257055      0.688554993781      0.712709501934
H      2.505207344921      1.543955665892      0.875147573326
C      0.377477005219      1.048574330799      0.844509858727
H      0.177452259779      1.920472235291      0.220434142397
H      0.230231676260      1.379608778765      1.873292976358
C     -0.560192618486     -0.433253123665     -0.953876950634
H      0.093494522439      0.155614352645     -1.582779172169
C     -0.568447830510     -0.080182943119      0.508151056086
H     -1.579445578782      0.197082533287      0.813693532558
H     -0.284882306987     -0.956824046913      1.092853768022
