14
OptimizedStructure
C      0.000240129875     -0.141727054491     -0.814478629156
H      0.582897377807      0.268311555316     -1.644013094312
H     -1.052963898179     -0.155267494544     -1.106920240463
O      0.182333142985      0.700524419222      0.322185911409
C     -0.911259029262      1.374892106174      0.776449711029
H     -1.835374322818      1.201873139189      0.232958732764
C     -0.834115480713      2.183223711388      1.813843437831
H      0.096961912026      2.337965300362      2.334323997201
H     -1.708159426338      2.709571772723      2.163861884746
C      0.462775609134     -1.514570576685     -0.474128515144
H     -0.028874994313     -1.969058830438      0.372584061831
C      1.409527819065     -2.150376886237     -1.132378638208
H      1.916182582931     -1.694254659405     -1.973354478476
H      1.719828577798     -3.151106502574     -0.870934141052
