14
OptimizedStructure
C     -0.397510103919     -0.280211113848     -1.865124332471
H     -0.009027253914      0.722846891408     -1.787032852005
H     -0.874694245108     -0.545028888316     -2.797755535393
O      1.321191361264      1.784300821686      0.030628550100
C      0.379863150545      1.633908277256      0.762153326757
H     -0.135978269105      2.491249644152      1.226894789183
C     -0.187028421243      0.310113658331      1.179650368263
H     -1.273374718041      0.346203693082      1.094799682726
H      0.026451170886      0.232025612575      2.247564735726
C     -0.278781498896     -1.154290460543     -0.886427285845
H     -0.663416443491     -2.156092216121     -1.020298256593
C      0.377292408639     -0.889891629787      0.442725209688
H      1.446478940444     -0.723357851829      0.298847507075
H      0.268533921938     -1.771776438048      1.073374092789
