14
OptimizedStructure
C     -1.041542678172     -0.630076534783      0.176995702002
H     -2.003025830183     -0.418841870590     -0.301773895627
H     -1.191877576174     -1.426986733720      0.910087490508
O     -0.691307053652      0.538057203190      0.932960690644
C      0.332289954844      1.328504124866      0.503260681224
H      1.118276510280      0.829500809205     -0.048313199764
C      0.371384561874      2.608949857945      0.810888689376
H     -0.425432764033      3.076979398726      1.366697748458
H      1.223649496240      3.212699824944      0.539234942541
C     -0.065921392196     -1.070021824936     -0.858834087478
H      0.044443025753     -0.423961626731     -1.715391295169
C      0.590297736828     -2.210891761373     -0.792779538741
H      0.484707531443     -2.873881820436      0.055985955202
H      1.254058477148     -2.540029046307     -1.579019883176
