14
OptimizedStructure
C     -1.554242503873     -0.001995158782     -1.434085125332
H     -2.139104535370     -0.049406624443     -2.340069354425
H     -1.956333163512      0.618731367083     -0.644864220133
O      1.727806716033      1.205957673149      2.463243261875
C      1.168157270420      1.106368435586      1.405280620360
H      1.405335367840      1.765070982038      0.550646772031
C      0.110575895875      0.093670543617      1.092576820675
H     -0.815123190359      0.632988519502      0.901751893689
H     -0.053460432369     -0.542928749622      1.956720431784
C     -0.427357179944     -0.670609133153     -1.315982931225
H     -0.087437491459     -1.274308766104     -2.147413923728
C      0.502490742726     -0.719232676008     -0.140098637134
H      0.629464385191     -1.764710165360      0.145525336195
H      1.489228118800     -0.399596247502     -0.493230944630
