14
OptimizedStructure
C     -1.770050557940     -0.481977242636     -1.300942822047
H     -2.371615790027     -0.627496820787     -2.185215765496
H     -2.278976776672     -0.059352966977     -0.444310142392
O      1.920516356879      0.032301284772      2.213885404544
C      1.279753699469      0.910449528267      1.702763850976
H      1.284609499384      1.940729809455      2.097499973623
C      0.406818626929      0.745603293389      0.496249621269
H      0.734500351859      1.463930305033     -0.257415223588
H     -0.602416632987      1.052946720190      0.772101284209
C     -0.494565549850     -0.809481049607     -1.268298478751
H     -0.034530469784     -1.239084143164     -2.146903940078
C      0.401691239045     -0.655709734727     -0.070724411828
H      0.098953411852     -1.346350865239      0.719106126603
H      1.425312591841     -0.926508117968     -0.327795477045
