14
OptimizedStructure
C     -0.035801265118     -0.124546981318     -0.590673492747
H     -0.110529973037      0.427421396649     -1.536066672401
H     -1.029884028717     -0.157816234713     -0.133730286618
O      0.887310218559      0.537416898728      0.272096883243
C      0.532471269124      1.828878552992      0.586386125924
H      1.141635228663      2.579048750375      0.090459144101
C     -0.414508171967      2.134163993940      1.447063315295
H     -1.007192838661      1.373512853558      1.931892545361
H     -0.627574661474      3.162600382218      1.696926492175
C      0.479444186027     -1.499163991783     -0.832104354544
H      1.496654956338     -1.547418864121     -1.188917951090
C     -0.229484901244     -2.590887766199     -0.635969846432
H     -1.246843853067     -2.547559036108     -0.268168733647
H      0.164303834573     -3.575649954217     -0.839193168621
