14
OptimizedStructure
C     -1.085496112950     -0.850760573213     -1.830371312573
H     -1.047989160344     -0.697377171671     -2.898924409709
H     -1.992544575138     -1.294566621448     -1.438827212507
O      2.308437473770      0.989854563248      1.294202076127
C      1.237583020915      1.334689050044      0.870378913046
H      1.130989904587      2.200189976176      0.197075171935
C     -0.040727231471      0.608846844623      1.191316700741
H     -0.911521652194      1.207311085941      0.930471414785
H     -0.066028841221      0.406050387298      2.259506120485
C     -0.082815815266     -0.527857001271     -1.041551167510
H      0.816427281381     -0.089340374320     -1.451553774618
C     -0.083598180017     -0.716976088285      0.440350248131
H     -0.974511528724     -1.272117613826      0.740434945164
H      0.791795416669     -1.297946463296      0.737492286505
