14
OptimizedStructure
C     -0.242830708441     -0.642182623581     -2.052545978430
H      0.789043399650     -0.497112583842     -2.347594001994
H     -0.971694874231     -0.656162604588     -2.849505710031
O      0.041305737533      2.674897658755      1.477595835740
C      0.220388758661      1.686141142315      0.818049477041
H      0.528046784866      1.734451633920     -0.239706345584
C      0.047837530560      0.290960950725      1.359322115042
H     -0.979850350266      0.192731432553      1.709167121694
H      0.676542144253      0.199122753568      2.243262085491
C     -0.584704627160     -0.804807074466     -0.791720752974
H     -1.623046921972     -0.949079926847     -0.522764529040
C      0.371642590221     -0.797858847074      0.354088546585
H      1.391897062511     -0.666327116926     -0.016256939722
H      0.335423473815     -1.764774794513      0.858609076181
