14
OptimizedStructure
C     -0.685307185772     -0.545485711907      0.698446444632
H     -1.526432424575      0.143073107867      0.796550209748
H     -0.868974390051     -1.413890115948      1.332257786081
O      0.487361026690      0.050364927035      1.255812942171
C      0.794583196861      1.313411302493      0.865767223576
H      1.692701722233      1.639942837773      1.378818642005
C      0.158566631761      2.093549316022      0.013269867597
H     -0.728954069264      1.796177672069     -0.520261398645
H      0.534228607342      3.087051568694     -0.180471246867
C     -0.483166122800     -0.972420745240     -0.725589000241
H     -0.997191607629     -0.415219658657     -1.493337341105
C      0.307877543141     -1.974694470078     -1.050970195847
H      0.840321656941     -2.533801698381     -0.293768560228
H      0.474385415122     -2.268058331742     -2.076525372878
