14
OptimizedStructure
C      0.209346151849     -0.633461129209     -2.102444137633
H      1.289898868206     -0.702155100096     -2.109307808660
H     -0.273356654917     -0.532125665599     -3.063465550020
O      0.143275195325      2.139683676816     -0.088502924768
C      0.270856563809      1.630448558344      0.991241393190
H      0.800549176042      2.143641194022      1.812231984972
C     -0.274614044762      0.273254219428      1.354958921267
H     -1.362478897573      0.348729541489      1.367183780232
H      0.042289580778     -0.002313949293      2.358297529182
C     -0.475026843588     -0.659151799339     -0.979060130885
H     -1.553979062688     -0.573539388236     -0.993334170554
C      0.135583848233     -0.815682436518      0.373969066428
H      1.224744540375     -0.842922205566      0.283295410687
H     -0.177088421089     -1.774405516245      0.794936636562
