14
OptimizedStructure
C     -1.697740829622     -1.316845810025     -0.795259187645
H     -2.651304058946     -1.368438432264     -1.300007202990
H     -1.530401174211     -2.039339829258     -0.006509247320
O      0.276128930816      1.289952577746      2.603436578691
C      0.959033011853      0.850558945769      1.718806314319
H      1.849365441143      0.228149321427      1.919825115305
C      0.695367377099      1.057546968445      0.258048262221
H      1.531634823425      1.614053493903     -0.161688042054
H     -0.199199662135      1.662409844662      0.137685921164
C     -0.785171765985     -0.425066186371     -1.117791687588
H     -0.973667907290      0.293722937790     -1.904112410241
C      0.542316048929     -0.301063483398     -0.446614844057
H      0.648355039891     -1.113530878446      0.278616488799
H      1.335284725032     -0.432109469980     -1.184436058605
