14
OptimizedStructure
C     -1.914695925472     -1.042775815984     -1.097728758119
H     -2.659777250789     -0.987789104920     -1.877994343150
H     -2.162352074553     -1.648072810696     -0.235052787094
O      1.409503840646      0.185786555551      2.546636074538
C      1.568008313867      0.849868935796      1.557772924272
H      2.482923241917      1.444905309203      1.399889955420
C      0.552444181699      0.926573354773      0.448457844632
H      0.868840521464      1.613933224823     -0.334358316227
H     -0.379349296436      1.306255782945      0.865922416546
C     -0.760916514734     -0.415989078837     -1.188027553089
H     -0.531482816533      0.186579225759     -2.057581394905
C      0.297004402731     -0.453953645863     -0.136834213734
H      0.003238866570     -1.124596752374      0.671926527839
H      1.226610509621     -0.840725180176     -0.563028376929
