14
OptimizedStructure
C      1.416742562602     -0.847951160449     -1.163717634348
H      2.113738691535     -0.570239869855     -0.382896514914
H      1.843228659533     -1.013254251721     -2.141300198768
O     -1.484161989492      1.667191920254     -0.631634504859
C     -0.748535727894      1.727191000886      0.315711541839
H     -0.430336226393      2.691908773886      0.746029673345
C     -0.191274982490      0.539181080247      1.042926405177
H      0.888725531464      0.659609256212      1.121035967789
H     -0.573068842785      0.581084890328      2.064086744133
C      0.125652503549     -0.981076686472     -0.941164379422
H     -0.530176763185     -1.259612506439     -1.752687299249
C     -0.541834232167     -0.780487792383      0.393279783967
H     -0.265941921362     -1.594849219974      1.066807341058
H     -1.622757262915     -0.818695434520      0.263523074252
