14
OptimizedStructure
C      0.243561254139     -0.968297887084     -1.859274750173
H      1.034342528660     -1.128787017293     -2.577854283121
H     -0.755315484114     -0.849122117206     -2.260260282594
O      0.441732297835      2.568748828459     -0.006872978834
C      0.588789335011      1.555627763717      0.621480637647
H      1.587944611370      1.175272365042      0.884562353482
C     -0.544434976141      0.709834773382      1.125374898743
H     -0.434298837975      0.610437398772      2.204034009424
H     -1.475008791939      1.237347069961      0.938148883913
C      0.477173672426     -0.913510004773     -0.565061612455
H      1.484336260089     -1.035975207392     -0.194158160778
C     -0.585301430661     -0.687442995612      0.465954859921
H     -1.558456473977     -0.815467672083     -0.009861599655
H     -0.505063964721     -1.458665297890      1.233788024478
