14
OptimizedStructure
C     -1.054507243369     -0.342782900153     -1.691605334022
H     -1.115397520184     -0.322699625091     -2.768916340154
H     -1.915150774584      0.041942593119     -1.159597823988
O      1.718709667054      1.913080957844      1.615080811571
C      0.988153223446      1.402743013284      0.808529659396
H      1.069701132221      1.608183476120     -0.271145179108
C     -0.089160265358      0.419558211701      1.153924392062
H     -1.050355384854      0.829464022111      0.846918996151
H     -0.107976760832      0.267863285573      2.229567775870
C      0.003706861727     -0.815134890128     -1.065198212173
H      0.833992121264     -1.198634375784     -1.640089980508
C      0.145022813038     -0.900456322445      0.432921735385
H     -0.565746289559     -1.633824027942      0.819314919226
H      1.139008419991     -1.269303418208      0.690294580292
