14
OptimizedStructure
C     -0.932517314501     -0.794174129458     -2.005219898836
H     -0.723835572009     -0.698110857205     -3.060502626502
H     -1.931124152048     -1.119705304128     -1.739240526776
O      2.065367952166      1.258446146689      0.274442450403
C      1.329471230653      1.121680514733      1.215129582348
H      1.672050214296      1.322513582268      2.244750315803
C     -0.106649446639      0.675999366785      1.112303649683
H     -0.662905563618      1.445597600838      0.577774735248
H     -0.539675900332      0.590299466734      2.106392910724
C     -0.020807160094     -0.537526315574     -1.091261718311
H      0.966877659887     -0.206208091458     -1.368237718858
C     -0.264665093599     -0.652226713203      0.377765975857
H     -1.277546499403     -1.024772232060      0.546185938563
H      0.425959645242     -1.381813034959      0.809716930654
