14
OptimizedStructure
C      0.122633401703     -0.680112967940      1.046367312794
H     -0.932505678521     -0.412391247679      1.106386129552
H      0.406582497340     -1.151932224730      1.986472789371
O      0.921676334488      0.504005959024      0.974966609384
C      0.391955981036      1.617811882235      0.412079386789
H      1.120283494369      2.420881324997      0.464040662543
C     -0.797561614930      1.807807073760     -0.126789037226
H     -1.552382208755      1.043742246266     -0.213714017305
H     -1.051424342875      2.784092300989     -0.510151100420
C      0.397049152905     -1.604331310426     -0.104207432179
H      0.889637141522     -2.533329884199      0.142774295130
C      0.103307678926     -1.342146954199     -1.362996073070
H     -0.369252830066     -0.419874011149     -1.660507467665
H      0.350000992858     -2.034222186948     -2.154722057699
