14
OptimizedStructure
C     -0.472113813293     -0.186523677680     -1.856905722881
H     -0.541179662693     -0.430407320913     -2.907181059770
H     -0.679190507918      0.837654879495     -1.587932720574
O      1.310259124989      1.744745037592     -0.156940989369
C      0.826775653261      1.437642182895      0.898701262566
H      1.199080346917      1.863112418520      1.846687383769
C     -0.309690249401      0.461116479503      1.064882885724
H     -1.187849147263      0.851499181461      0.552511523155
H     -0.560411493234      0.368313269297      2.118793916830
C     -0.107912632650     -1.090120380003     -0.972717294988
H      0.122032849602     -2.095158407762     -1.302862343265
C      0.017216636734     -0.917232403449      0.510000976553
H     -0.647718586658     -1.644177799561      0.983326979958
H      1.030701481608     -1.200463459396      0.809635202294
