14
OptimizedStructure
C      0.170119670974      0.303285141617     -1.064943873581
H      0.828854193821      0.318445712926     -1.934090381942
H     -0.735180000783      0.864694415727     -1.302602022686
O      0.909274860221      0.993583254275     -0.055991815528
C      0.234678118476      1.395055553452      1.051052221481
H      0.913831827956      1.916591129411      1.716794191367
C     -1.039265221839      1.227793327964      1.349340417658
H     -1.737132896769      0.705985393686      0.715719323038
H     -1.424125668861      1.622074246509      2.277849577070
C     -0.142872861289     -1.110510487733     -0.672223777291
H     -1.170015347240     -1.352093155361     -0.446948615338
C      0.791697222688     -2.034461909807     -0.576996917656
H      1.827359288676     -1.804170057465     -0.786333242850
H      0.572776813969     -3.046272565201     -0.270625083742
