14
OptimizedStructure
C      0.579953185815     -0.936326331269     -1.776730463756
H      1.442225078656     -1.306393203473     -2.312686005637
H     -0.172362669201     -0.425709604861     -2.363597473620
O     -0.538363125482      2.346448597779     -0.230419313013
C      0.175497726049      1.715480481114      0.501972114511
H      1.238205544968      1.971934527391      0.639282555870
C     -0.307376482106      0.516557881199      1.277822408906
H      0.458733687845      0.150543731330      1.959356253700
H     -1.171512327458      0.815298474719      1.867511870754
C      0.445815966905     -1.090660544329     -0.476560602501
H      1.212557419511     -1.593963940231      0.098510928572
C     -0.718695221223     -0.582497510354      0.310156862682
H     -1.473311247707     -0.179807301128     -0.367409370917
H     -1.171367536573     -1.400905257887      0.872790234449
