14
OptimizedStructure
C      0.736060333849     -0.056594298112     -1.095237411747
H      1.758938094954     -0.378735195987     -1.292608957706
H      0.393758462178      0.539375463971     -1.945388363739
O      0.834541374329      0.769158565774      0.064260053704
C     -0.320025910813      1.425956505680      0.385042033967
H     -1.014489827260      1.584814145551     -0.434562380834
C     -0.539462167464      1.864143804315      1.606680671317
H      0.169781894014      1.686284004709      2.399210594624
H     -1.425699366118      2.435343989633      1.836580555937
C     -0.159806565140     -1.239835588237     -0.868125050683
H     -1.079310401490     -1.282216974026     -1.432191786296
C      0.131001255594     -2.184564051032      0.002910885830
H      1.042603079959     -2.144238010448      0.582800962243
H     -0.527890256591     -3.018892361790      0.190628193382
