14
OptimizedStructure
C     -0.310737584296     -0.105158767313     -0.528015207407
H     -0.515696210452      0.688343345266     -1.249471059913
H     -1.213946888253     -0.267165411877      0.068220043950
O      0.750048821871      0.300845818699      0.334148342707
C      0.549553618931      1.434601505806      1.051028855840
H      1.423091462567      1.635795849599      1.661049654552
C     -0.507387725647      2.224590636263      1.064148913443
H     -1.389183645465      2.054211759670      0.469274935262
H     -0.509096958379      3.097612599187      1.699071270541
C      0.115951354279     -1.367121588664     -1.211951376952
H      0.219358475496     -1.329439237575     -2.285510220373
C      0.379786034188     -2.475503393336     -0.550875724041
H      0.295973978615     -2.516937922419      0.525837389341
H      0.712285266546     -3.374675193307     -1.046955816949
