14
OptimizedStructure
C      1.515145965053     -1.309707126410     -1.228900247192
H      2.160830350860     -1.761575096669     -0.485368414367
H      1.846882589173     -1.372194998740     -2.254787154443
O     -1.566662213680      1.651009330467     -0.862834584907
C     -1.407143060441      1.554564764834      0.324765202142
H     -2.121411635289      2.001889939017      1.037179250804
C     -0.249782438084      0.837077312066      0.970811507897
H      0.663950240570      1.377357920414      0.724614260613
H     -0.359768780342      0.856361866248      2.052754660176
C      0.383599271160     -0.723416150165     -0.899857185726
H     -0.246268477541     -0.270028524757     -1.647999008327
C     -0.113104012692     -0.609348175386      0.504044358973
H      0.577701055217     -1.127215714537      1.173137586943
H     -1.083968853962     -1.104775346382      0.592439767415
