14
OptimizedStructure
C      0.248931311616      0.389691264809     -1.184326767988
H      1.313119665711      0.187158995930     -1.017959453347
H      0.110374100202      0.680638138541     -2.228305241394
O     -0.169457606999      1.529480702187     -0.433938036149
C      0.279148670010      1.574314693038      0.866413732332
H      1.026487324709      2.345825214623      1.029050512246
C     -0.180526285658      0.818602427768      1.841057127382
H     -0.922798008418      0.056506420045      1.671811815270
H      0.190406520026      0.938755051065      2.848735298877
C     -0.566529088832     -0.823177408404     -0.888010564983
H     -1.634308101933     -0.680597295407     -0.952127718609
C     -0.051198983305     -1.999662486014     -0.597757899785
H      1.019846485519     -2.145345657999     -0.531488060303
H     -0.663496002650     -2.872190060181     -0.423154743550
