14
OptimizedStructure
C     -1.883785908540     -1.096998930319     -0.761998605655
H     -2.837882172979     -1.028386993126     -1.264483039998
H     -1.814873431287     -1.806249300838      0.052468470404
O      1.048114887577     -0.219405631867      2.346432769879
C      1.114475309026      0.791312981521      1.701581225073
H      1.388528982788      1.756206157101      2.160476006387
C      0.837207048197      0.904101882575      0.230142757839
H      1.704857003309      1.378373259617     -0.228442563231
H      0.025566321963      1.626386212589      0.125949036281
C     -0.851159957945     -0.362536766531     -1.117699833914
H     -0.936725215253      0.344591870446     -1.933033946538
C      0.480598212596     -0.415448626006     -0.446828007053
H      0.476096642315     -1.198477164214      0.312261275712
H      1.248982278234     -0.673468950949     -1.176825545187
