14
OptimizedStructure
C     -0.261707192226     -0.049786808688     -0.738511036648
H      0.065585142939      0.550681415038     -1.597297370763
H     -1.295026536047      0.238071947281     -0.515578529576
O      0.568950284563      0.214470837882      0.382395313807
C      0.554202299041      1.527757626083      0.793320591341
H      1.466960316112      2.065115989599      0.554437073970
C     -0.440818225308      2.069129105844      1.462243169265
H     -1.338635669865      1.515767297975      1.691402253204
H     -0.387656605304      3.091328654687      1.804963763607
C     -0.209459211074     -1.497585157554     -1.091594558001
H     -0.818149971643     -1.762918981763     -1.945343785448
C      0.497655175380     -2.401830033705     -0.450499091296
H      1.099454723253     -2.120306875866      0.398012313487
H      0.498645470180     -3.439895016813     -0.747950106949
