14
OptimizedStructure
C      0.383519694812     -1.472076419296     -1.864344584497
H      1.247233767089     -1.760614380265     -2.443853507929
H     -0.580333842114     -1.780604264400     -2.248252690770
O      0.281220262387      2.307095750917     -0.157085234339
C      0.264979068987      1.832204152026      0.945750802130
H      0.639825889220      2.385436933564      1.823745558475
C     -0.272728385902      0.474280414910      1.286806773455
H      0.472134963206     -0.055326598803      1.882106330865
H     -1.124356449471      0.633103008657      1.949502157750
C      0.493232697470     -0.775177065620     -0.753141674802
H      1.468782564341     -0.469858348564     -0.400051765625
C     -0.679559058144     -0.344746757333      0.084439380482
H     -1.360628438263      0.249943507794     -0.526522596607
H     -1.233322733617     -1.223659933588      0.420901051411
