14
OptimizedStructure
C     -0.266668325993     -0.024744698121     -0.880706551104
H      0.715030125026      0.216627852861     -1.302872459850
H     -1.000604222252     -0.048278606304     -1.688653567040
O     -0.682289208926      1.036727540372     -0.020514630873
C      0.210071564817      1.347133322754      0.979853816299
H     -0.007708147604      0.878315883486      1.933870465363
C      1.204425539782      2.190363894620      0.804747446693
H      1.395287565312      2.643501798974     -0.156232716547
H      1.856532871323      2.462511784463      1.621284046969
C     -0.223227235736     -1.340825943453     -0.179222556330
H      0.505644733289     -1.428181490768      0.611949024125
C     -1.008140858598     -2.353596745196     -0.483052226237
H     -1.745857829909     -2.277513720222     -1.271576615214
H     -0.952496570531     -3.302040873466      0.031126523747
