14
OptimizedStructure
C      1.475196823717     -0.424778951388     -1.074902035556
H      1.744173045634      0.464426340990     -0.523155341696
H      2.152065247323     -0.714719484288     -1.864798746934
O     -0.865481290626      2.734821926761      0.800592521305
C     -0.675720492841      1.667033471067      0.282194064032
H     -0.684567667636      1.536560521416     -0.811796482116
C     -0.408583295120      0.405998223614      1.060601181139
H      0.617286349598      0.446397670279      1.425910774151
H     -1.045203752955      0.411855800554      1.942244583405
C      0.390036397668     -1.124489676302     -0.815029260793
H      0.174549641227     -2.005713150864     -1.404584926487
C     -0.622929601883     -0.855786582466      0.255257436723
H     -0.634360555226     -1.714627640506      0.929603411646
H     -1.616460848879     -0.826978468867     -0.202137178819
