14
OptimizedStructure
C      0.073555132371      0.126920067269     -0.938217894675
H      1.150342788055      0.181312326338     -0.758766013255
H     -0.158951464199      0.728271110603     -1.821714464311
O     -0.657855138565      0.675153799789      0.158783191830
C      0.069667240813      1.270892102675      1.144909123680
H      1.146605247329      1.149094489235      1.079650942598
C     -0.515760646012      1.936285509257      2.119739068596
H     -1.587642826039      2.042370013318      2.160890983641
H      0.071004429720      2.381736886823      2.907649424066
C     -0.352433619569     -1.285545138580     -1.135932265872
H     -1.418554977957     -1.429923922395     -1.215043936508
C      0.482772108586     -2.300480395713     -1.209421644982
H      1.553615457124     -2.162603201644     -1.125411157513
H      0.143636268344     -3.313483646973     -1.367115357293
