14
OptimizedStructure
C      0.934040897557     -0.820992503148     -1.472671124068
H      1.609334243892     -1.410470738599     -2.076101671277
H      0.866260271276      0.229608208538     -1.706736279109
O     -0.638475035207      1.980686848958     -0.774237304228
C     -0.114235811144      1.815268527270      0.294245371715
H      0.434395951926      2.626261744724      0.802580306656
C     -0.163246762151      0.547729884040      1.093648737135
H      0.837723895945      0.320661743108      1.461273827221
H     -0.757713846738      0.789913051896      1.976863645121
C      0.214477085697     -1.372261153187     -0.516486052998
H      0.299204747263     -2.434861548679     -0.334349134374
C     -0.760910448258     -0.643946642044      0.369608299327
H     -1.603567852813     -0.287265902926     -0.225623993004
H     -1.157287337246     -1.340331519952      1.107985371883
