14
OptimizedStructure
C     -1.790349760007     -0.745128294422     -0.864854664267
H     -2.545768174149     -1.347835200158     -1.346384192745
H     -2.150363554412     -0.001956479679     -0.167840669972
O      0.470620078193      0.638411170092      2.807460530139
C      1.036545429754      0.689678238860      1.749609443296
H      2.128335618243      0.544839215076      1.662108852622
C      0.357008540928      0.930803917215      0.435247410471
H      0.717891867199      1.876962866216      0.035484284669
H     -0.709972043130      1.031565960437      0.601003304054
C     -0.513051886551     -0.929145047706     -1.120710318954
H     -0.225220912906     -1.698418914643     -1.825997353674
C      0.665702925638     -0.203526659335     -0.542502108220
H      1.291563165662     -0.954415958610     -0.047726225517
H      1.267058705538      0.168165186658     -1.374898291902
