14
OptimizedStructure
C     -0.669236339927     -0.643724294912     -1.982867398941
H     -0.331320332478     -0.494678875975     -2.998000511500
H     -1.723472055272     -0.855058256164     -1.851997939000
O      1.840092410262      1.916724422536      0.995531503333
C      0.745582532994      1.505918329616      0.716553158388
H      0.139511015511      1.955626798004     -0.084512342620
C      0.074796043259      0.358990886992      1.412739641474
H     -0.850599505238      0.742237840127      1.840312443131
H      0.702920174337      0.031332072548      2.235964977461
C      0.154690536671     -0.584703183118     -0.958303234052
H      1.203156143669     -0.373531907385     -1.112251744715
C     -0.249376627549     -0.813446808891      0.463437777497
H     -1.314979611836     -1.048663107725      0.497211433303
H      0.278235615594     -1.697023915653      0.826182236243
