14
OptimizedStructure
C      0.536768226758     -0.096608694213     -1.568293773055
H      1.415347207126     -0.025147637805     -2.192095511378
H     -0.366855174895      0.306012333179     -2.011750668617
O      0.867536365771      1.370649712092     -0.479750605932
C     -0.070446822268      1.433571076354      0.388237412146
H     -0.953946639723      2.036615653253      0.163219668201
C     -0.109949087387      0.609732533751      1.484303598503
H      0.794656437559      0.129855781438      1.823962158515
H     -0.901039729638      0.707534202657      2.216948243581
C      0.432565652138     -1.112490015501     -0.622943295180
H      1.312300554924     -1.679498711571     -0.367879472384
C     -0.647006972300     -1.122833425960      0.230825497869
H     -1.594434675275     -0.712011937948     -0.097575451087
H     -0.715495342791     -1.845380869727      1.032792198817
