14
OptimizedStructure
C      0.334029272445     -0.594240941152     -1.997288375890
H      1.407313322183     -0.735768788750     -1.969381104835
H     -0.101562314964     -0.408680579846     -2.968512064236
O      0.202061898313      2.557973307349      0.457840720553
C     -0.419845439698      1.565613945219      0.724907401161
H     -1.496056630869      1.479092464481      0.509320028483
C      0.175859169632      0.354525498753      1.382077618326
H     -0.390842698205      0.153133357130      2.289712744264
H      1.193928327691      0.590862892593      1.676978791456
C     -0.395413053987     -0.640648672306     -0.902608365990
H     -1.464285629073     -0.495735719302     -0.961393553219
C      0.165071499793     -0.888723985750      0.463872289641
H      1.190092488070     -1.245552627689      0.355129354295
H     -0.400350211330     -1.691850150729      0.939344515990
