14
OptimizedStructure
C     -0.137469110878      0.322877503065     -1.203881250953
H     -0.072621032148      0.711731569409     -2.219571234359
H     -1.143913699652      0.514343939785     -0.831046563012
O      0.811861158297      1.088998861893     -0.457198319884
C      0.530858893291      1.402720910572      0.831454273338
H      1.340962677145      2.002447571750      1.234121958072
C     -0.521318422829      1.094135971853      1.565707432066
H     -1.346588039138      0.493848924639      1.219744027685
H     -0.579388925186      1.457151411658      2.580297606611
C      0.193397008930     -1.141175945819     -1.184357276822
H      0.513082855562     -1.566148732968     -2.124506706547
C      0.142382713026     -1.907094942112     -0.111818478505
H     -0.150501791695     -1.523456162020      0.852263634884
H      0.419255715274     -2.950380881705     -0.151209102575
