14
OptimizedStructure
C      0.963443921848     -0.137140893741     -0.752402090433
H      1.884244067237     -0.679627738031     -0.522347584067
H      1.085772080087      0.348562905989     -1.725755965587
O      0.870830604409      0.910853250465      0.223208186844
C     -0.326822798254      1.158467575133      0.824467368892
H     -0.989241625734      0.309418859353      0.930907807268
C     -0.609881350151      2.354866407919      1.297976820791
H      0.073537332913      3.180749409824      1.180722415029
H     -1.523850634171      2.525999946612      1.845734803178
C     -0.182112840048     -1.086563590789     -0.820434955397
H     -1.112758865253     -0.685738594345     -1.189895831731
C     -0.078141743042     -2.364686010219     -0.516850218649
H      0.850508705578     -2.784002517129     -0.152309848355
H     -0.905526855421     -3.051159011041     -0.623020907784
