14
OptimizedStructure
C      0.018891971545      0.377253656431     -1.363120593297
H      1.099627109672      0.540349995337     -1.428338061564
H     -0.443767983143      0.821524225719     -2.243062415027
O     -0.512763598403      1.100222012615     -0.255102946390
C      0.263403253314      1.106412631605      0.866291939031
H      1.333744047562      1.028673417124      0.696457470359
C     -0.263845866417      1.258258431083      2.063391580831
H     -1.331228273649      1.331260322479      2.196110607138
H      0.364554202372      1.344286643990      2.936638443024
C     -0.296144022343     -1.090461833667     -1.287573697748
H     -0.910529974170     -1.490007979645     -2.080423240323
C      0.115239069211     -1.882656889745     -0.317609334276
H      0.716453428400     -1.517315590604      0.501402685755
H     -0.153633363951     -2.927799042723     -0.285062437513
