14
OptimizedStructure
C      0.478651482114     -0.081171798402     -1.033412149479
H      1.482799039788      0.103002149553     -1.428162835445
H     -0.221999946485      0.493402421188     -1.646536117068
O      0.441397633367      0.359522413446      0.315478701151
C     -0.269440907127      1.494664657743      0.571607543966
H     -0.898557276007      1.852340969632     -0.237642027019
C     -0.200915730105      2.092766613274      1.743258720602
H      0.434365594106      1.716071943687      2.528290504289
H     -0.792835444359      2.971582834669      1.944568551800
C      0.154318140170     -1.534555137698     -1.134288425973
H      0.221870980714     -1.933818121991     -2.137101385371
C     -0.183383894217     -2.298199021950     -0.118615923780
H     -0.238707284800     -1.888845675399      0.877347744697
H     -0.407562387159     -3.346764247752     -0.244792902369
