14
OptimizedStructure
C     -0.571935439801      0.024852302366     -1.190298703746
H     -0.210278366892      0.782495883281     -1.890504152003
H     -1.504240606898     -0.384646021426     -1.580333907459
O     -0.936588540093      0.642767882897      0.043074392310
C      0.061348354207      1.377231734070      0.619265411621
H      0.826735716376      1.744364700026     -0.057982457082
C      0.055669960953      1.644151556276      1.908172745501
H     -0.718002747790      1.260789567202      2.554106952099
H      0.814272813271      2.276185126852      2.343599251383
C      0.445820872593     -1.061593900119     -0.995300888974
H      1.427430333926     -0.904024052703     -1.416096931674
C      0.181546686962     -2.158150393458     -0.314487106793
H     -0.794072422104     -2.319228182617      0.122706031398
H      0.922293385289     -2.925196202648     -0.145920636582
