14
OptimizedStructure
C     -0.035124527465     -0.204542051668     -0.648735348336
H      0.497777878786      0.328737212720     -1.454544207176
H     -1.110356431343     -0.182518078906     -0.877014705390
O      0.222324101806      0.426123610455      0.590646031890
C     -0.114703096924      1.738228324145      0.673721875223
H     -0.525247697782      2.181117034054     -0.229235077230
C      0.047945688025      2.440791809093      1.782645126681
H      0.454154650987      1.992375700131      2.670522471895
H     -0.222807547669      3.478176449006      1.820271892044
C      0.461458654055     -1.615386460640     -0.579956552038
H      1.412645016812     -1.725496693618     -0.079455689668
C     -0.179925278094     -2.654699431316     -1.077321505746
H     -1.133169109893     -2.552885274362     -1.570109972456
H      0.225027698700     -3.650022149092     -1.021434339694
