35
OptimizedStructure
C      1.449774344089     -0.060079561333      0.243274713022
C      2.602524504693     -0.040345136806     -0.734882256386
O      2.495910280020      0.572216255497     -1.775654591929
O      3.718942901884     -0.723335543151     -0.354051751663
C      4.690487490241     -0.610709959044     -1.342910833644
C      1.270485049447     -1.449949705063      0.905402560503
O     -0.038095102748     -1.948653967902      0.606864164906
C     -0.553583866855     -1.218159782446     -0.522754786994
C     -2.081092809412     -1.240423393951     -0.568898941444
C     -2.616150550495     -2.655046742483     -0.653310694383
C      0.090188891270      0.202732044787     -0.460700805722
C     -0.741695322562      1.219187292047      0.281245769763
C     -1.130984884101      2.400725842525     -0.330222585444
C     -1.882757548746      3.331639764983      0.355652218469
C     -2.252972427830      3.093769717292      1.662404665135
C     -1.869423643109      1.923763623400      2.282584137054
C     -1.117970122043      0.994631280389      1.594931719707
H      1.625021752686      0.714690609075      1.001204093699
H      5.585583169349     -1.153780188825     -1.032903824524
H      4.301250630806     -1.030632765071     -2.273268530275
H      4.925905347699      0.445859102894     -1.490472049468
H      1.998107023144     -2.165246004170      0.506551913167
H      1.388271164682     -1.418840271923      1.994588958498
H     -0.163823104025     -1.751298507083     -1.404822965951
H     -2.466805919707     -0.747785837205      0.329479709231
H     -2.432676388944     -0.637174900637     -1.414465829454
H     -3.707632810162     -2.684414024836     -0.649470696637
H     -2.263081579594     -3.251157972497      0.189764363196
H     -2.274450556316     -3.152607627277     -1.562223158334
H      0.282224339761      0.571680042194     -1.478295779632
H     -0.834821672440      2.589237945035     -1.347787022190
H     -2.178555763017      4.247132803548     -0.129744233477
H     -2.839581884897      3.821721474487      2.198425776383
H     -2.156754020627      1.734840912986      3.303808094169
H     -0.821766912141      0.075813180562      2.070658480652
