35
OptimizedStructure
C      1.640899473267     -0.276806818886      0.689259248555
C      3.063254693073      0.077273070756      0.282155335183
O      3.672938001125      0.716933384007      1.118021202314
O      3.655739880363     -0.284460341252     -0.911237697327
C      2.861078850277     -0.904026231567     -1.896054161150
C      1.338007140985     -1.790066576998      0.795469454120
O      0.104054954182     -2.061666401330      0.119702850461
C     -0.197186684084     -0.972331389104     -0.779030233069
C     -1.704344612100     -0.835616298911     -0.998240410619
C     -2.298770463280     -2.098160800410     -1.587853171491
C      0.509868022566      0.303120323924     -0.206618875570
C     -0.412269598991      1.205811014835      0.577739605128
C     -0.639371972201      2.511586669947      0.171289107892
C     -1.476486164157      3.336850915202      0.892547478252
C     -2.097631045880      2.867273352557      2.030272136153
C     -1.880213110982      1.570878469755      2.445397927596
C     -1.042911569596      0.747474471223      1.722966245919
H      1.514811129895      0.168848090133      1.687296235085
H      3.524026941620     -1.226107889192     -2.699989985019
H      2.354454774290     -1.780904150222     -1.500987396793
H      2.151398782743     -0.188320937736     -2.307716972385
H      2.129473761562     -2.401853502324      0.353701577228
H      1.225905995876     -2.117636519339      1.835762266752
H      0.258302757222     -1.253913401057     -1.739290867490
H     -2.180536675638     -0.613803693896     -0.037950647078
H     -1.907066297100      0.030044494643     -1.640183546616
H     -3.381116916589     -2.025673972099     -1.712194416016
H     -2.093211433664     -2.956384239255     -0.945919772669
H     -1.867151837570     -2.318992460886     -2.565282439489
H      0.954930726386      0.892239933581     -1.018335486156
H     -0.149362814459      2.880886892417     -0.713122121102
H     -1.641959253978      4.351157298145      0.568371132539
H     -2.749793534766      3.512995205435      2.595172011475
H     -2.363352171367      1.200982754501      3.334760811439
H     -0.876409729030     -0.267630716600      2.040123573946
