35
OptimizedStructure
C      1.433508425713     -0.340426311872      0.230627261382
C      2.585669469768     -0.316739086969     -0.742193041419
O      2.457235553321     -0.846377917161     -1.824345273035
O      3.718699595277      0.308690005208     -0.313458878763
C      4.688413355025      0.241579033804     -1.308055363350
C      1.157799152854     -1.771255493118      0.755312727415
O     -0.198055261388     -2.120868005966      0.465484023841
C     -0.653562542068     -1.275124191761     -0.607635204196
C     -2.177671084790     -1.172867187132     -0.648553326137
C     -2.822683697964     -2.531663320086     -0.827993638660
C      0.103676273485      0.081721245459     -0.452151470757
C     -0.648806210224      1.107674372900      0.358424377028
C     -0.973378824317      2.342498368305     -0.181317456076
C     -1.656645104622      3.278038520969      0.567145632207
C     -2.023317668084      2.990944351644      1.864975968192
C     -1.705997211134      1.766468241732      2.413212250555
C     -1.023152024840      0.832725187148      1.663092316068
H      1.658691255141      0.345140403484      1.058206853244
H      5.596122978119      0.739366435159     -0.960905176871
H      4.898327095311     -0.807404329927     -1.529623638053
H      4.311238546954      0.735271450224     -2.206607037575
H      1.799681901542     -2.498075132814      0.245182210228
H      1.320358723790     -1.868571847828      1.834963620140
H     -0.303263946184     -1.776516869606     -1.524943535964
H     -2.523460189766     -0.714372290115      0.283616064489
H     -2.479309751710     -0.486797285875     -1.449042907088
H     -3.913075669862     -2.475162499918     -0.821433433064
H     -2.518501589256     -3.210605555237     -0.029680336871
H     -2.520129037523     -2.990550158730     -1.770517208009
H      0.327843004671      0.498656280149     -1.443954595185
H     -0.683853896837      2.567613218092     -1.193308977196
H     -1.902509171132      4.235172799409      0.137400166106
H     -2.556433434011      3.722443581915      2.449817926115
H     -1.992030938221      1.538374571663      3.426773243464
H     -0.781428077042     -0.129000583150      2.081485857796
