35
OptimizedStructure
C      1.561028759406     -0.210615713256      0.541373665972
C      2.862340994266     -0.064228303892     -0.210519192793
O      3.867099690670      0.228623259456      0.401530181588
O      2.816798505434     -0.304509211305     -1.551106587393
C      4.090321587838     -0.154895153612     -2.090739679289
C      1.342788902326     -1.673306227297      1.002917249478
O      0.160980184643     -2.190595885460      0.382195093523
C     -0.179500023944     -1.334663365100     -0.724557764907
C     -1.654622359669     -1.471326582923     -1.134374828897
C     -2.609921542535     -1.497537647233      0.042035617270
C      0.328205992492      0.097120979201     -0.353191014559
C     -0.687757664979      0.981004015884      0.328683344995
C     -1.337895656811      1.974937544114     -0.386703948336
C     -2.273994440245      2.784319881342      0.221932240431
C     -2.574964676076      2.609800623505      1.555763253388
C     -1.940553593252      1.622091441330      2.278143749394
C     -1.005833632692      0.812705318770      1.667297776839
H      1.586525463182      0.475967646009      1.397663556773
H      4.052621380292     -0.347633160795     -3.164798242757
H      4.437728235528      0.864045889735     -1.904724893521
H      4.766039475507     -0.863884250963     -1.606663865442
H      2.182924814564     -2.306158960781      0.696786467243
H      1.229090883752     -1.763601388556      2.089294301626
H      0.452937742584     -1.700664250104     -1.552506119022
H     -1.916830185523     -0.668031101705     -1.832970541647
H     -1.770613864945     -2.403974208158     -1.701307188440
H     -3.629882523545     -1.741031617277     -0.262893664951
H     -2.650639294216     -0.536970047785      0.552975452633
H     -2.295091255041     -2.241461694541      0.775569338169
H      0.676584268287      0.609429715237     -1.261363571953
H     -1.103526736945      2.111542491674     -1.428417600191
H     -2.769415832069      3.554841964476     -0.345586121665
H     -3.305323940637      3.242992939347      2.032183647304
H     -2.177311320673      1.479648429802      3.319710197315
H     -0.530338336975      0.026016630862      2.226369691823
