35
OptimizedStructure
C      1.472282268279     -0.433173065098      0.753066587467
C      2.726531084243     -0.610410930563     -0.071946941460
O      3.597609116344     -1.359901770836      0.314012942168
O      2.794891511790      0.122527084751     -1.219472446135
C      4.002218788666     -0.134990694936     -1.860621056574
C      1.141164432112     -1.697321025332      1.586200540669
O     -0.157495602956     -2.173872764615      1.221467718962
C     -0.501391097028     -1.611319761670     -0.061154484370
C     -2.014256575055     -1.587328285055     -0.294644374859
C     -2.391859460251     -1.124379250601     -1.689919105024
C      0.214730280276     -0.224931836900     -0.135219686976
C     -0.626125640854      0.927395458443      0.355397123099
C     -0.826563759500      2.048261381176     -0.435300907516
C     -1.583886734104      3.105275439061      0.024304458060
C     -2.145949446870      3.057185323721      1.282481330027
C     -1.947215595121      1.951444610937      2.081520934214
C     -1.190085894299      0.895912101526      1.619729955353
H      1.607986915312      0.438437132911      1.406777291298
H      4.823105012291      0.133158539942     -1.191393151472
H      4.059005639729     -1.199999333869     -2.097307823499
H      4.058302990371      0.455868538434     -2.777083238281
H      1.860646299356     -2.496469846192      1.373109041095
H      1.151178456846     -1.509775321443      2.666063864759
H     -0.041651463267     -2.288228408214     -0.799157634674
H     -2.411964766266     -2.591004593627     -0.103203505113
H     -2.479353256318     -0.948670310695      0.462859321311
H     -3.472833508668     -1.126455119754     -1.842926330393
H     -1.950390366964     -1.768731920627     -2.451688025234
H     -2.036918009377     -0.110923270865     -1.881094745862
H      0.532634025816     -0.022250417513     -1.167366725771
H     -0.377989415481      2.090053862455     -1.412901605901
H     -1.733349630425      3.971163794272     -0.599490332119
H     -2.736778105577      3.883700649853      1.641835848080
H     -2.382705899673      1.911725445383      3.066364427860
H     -1.033522593375      0.028028565543      2.236700736809
