35
OptimizedStructure
C      1.539672380557     -0.403329113930     -0.183677707098
C      2.471955576820     -0.497813325906     -1.374091784813
O      2.002674173971     -0.959893426315     -2.394401096653
O      3.786744164030     -0.102693303975     -1.273587167978
C      4.179423020828      0.392078471958     -0.015612690086
C      1.533666819049     -1.717251473186      0.638433516495
O      0.205118238600     -2.244332536142      0.669630725138
C     -0.528329009559     -1.665696782541     -0.427926122667
C     -2.042762056490     -1.733531611074     -0.217165198661
C     -2.829675609228     -1.256001789363     -1.424072028224
C      0.062091038701     -0.235655222271     -0.637119947256
C     -0.645391052114      0.841030411749      0.147559588641
C     -1.131032208716      1.977167719028     -0.480945759571
C     -1.763450213660      2.964653018181      0.245033112281
C     -1.914148709671      2.830684669002      1.609078525007
C     -1.429612702202      1.708422628579      2.246567813549
C     -0.798077592609      0.722516290190      1.518723603862
H      1.807654060666      0.454246617672      0.444550264207
H      3.689783744306      1.346957806986      0.179032705087
H      3.948474966631     -0.331273421219      0.766917064253
H      5.258169770031      0.551418758431     -0.038145781652
H      2.173498558994     -2.471490309417      0.166894288042
H      1.873670204676     -1.576794166677      1.670971612962
H     -0.261883109598     -2.286775568976     -1.299451752905
H     -2.313443213023     -2.766190265499      0.032972137488
H     -2.303358938200     -1.148098185766      0.670258268797
H     -3.907297093289     -1.325850745551     -1.263713714476
H     -2.589401065687     -1.846640056304     -2.309410734337
H     -2.601052196966     -0.216015471171     -1.660236837489
H      0.043973440000      0.022593954047     -1.705445620432
H     -1.005457798434      2.085520298799     -1.544534856231
H     -2.137727210794      3.843164870346     -0.254344166662
H     -2.407867669643      3.602745900826      2.176101471933
H     -1.544581775272      1.601104239046      3.312595827267
H     -0.422020932708     -0.158978879554      2.008562442182
