35
OptimizedStructure
C   -5238.739330852727   -4035.982713621828   -20454.508099492865
C   -7276.022016292926   -4911.397586022627   -21978.246154225068
O   -2184.713452474027   3832.032206356673   -15972.743488608568
O   -5183.238536764327   -5900.493723555428   -24467.917075812969
C   -7110.027358970627    318.633271000072   -21526.358675283467
C   -5368.250331447527   1023.157588725972   -16877.929766514768
O   -7631.055392930527   -9624.436648527328   -21051.022964680466
C   -4168.543703674627    634.557764754372   -18937.877635126668
C   -3128.684457230227   -4681.598794708628   -21901.703605374067
C   -1772.894972864827   -13621.969108433328   -12115.141745471368
C   -490.611000466627   -7877.029039655227   -20649.925217894870
C   30228.362367371472   -79369.367996599336   -72133.985407231055
C   -39636.488426718926   42508.089866308183   -55340.956518060273
C   9692.838111851072   -59169.642663297018   -84358.922912472262
C   -48353.645698708926   85729.087106728184   -14307.162532915969
C   36025.899803097869   -65216.366221842320   23092.275135652835
C   -50277.601584050033   68619.386742445684   30598.062024256134
H   -10117.400654090427   -79406.374499950820   26035.816111013835
H   29332.837880874573   -13358.040490044728   -57363.601404616456
H   -8624.843251478327   1699.773161413272   -17161.097575454267
H   15857.164401368475   -3625.541905271828   24541.267929661728
H   34736.010484216778   -3416.726332299628   -50859.771560096764
H   -7990.566006611727   -31035.879071560928   34265.728573819237
H   -12791.029959124628     56.617885158672   -69105.642331186580
H   -329.651492214227   -111579.581920668032   -13284.463443893968
H   26946.002046773272   36208.112164563172   132307.718264865631
H   -131500.630359628529   -45476.374181971521   127219.215032303633
H   -49271.092553986033   -71583.483753399938   -321748.176819636603
H   23809.093021881174   364390.180213277868   -19395.945835002469
H   3813.869006701473   5917.463312932573   -35143.271884300171
H   -48737.051980032127   -354703.952871631016   -1032195.283847994404
H   -426657.654647299496   300987.778328387707   -938637.670083402656
H   -90666.651217222534   45629.524455331681   20634.918999438629
H   67298.165431622270   412439.157189199002   1195283.621617290191
H   696766.845829376485   -401399.311733521463   1382990.702896446921
