35
OptimizedStructure
C      1.454355068584     -0.348570727059      0.433763879520
C      2.568839897560     -0.583859961444     -0.554890389097
O      2.413625451829     -1.396539337323     -1.440114204566
O      3.702752308378      0.148329505279     -0.363494398235
C      4.637898901919     -0.184494665360     -1.337528793760
C      1.286076462836     -1.545861753133      1.401673422842
O     -0.047468091009     -2.048935038478      1.292744408533
C     -0.582905645046     -1.616432552248      0.025629874580
C     -2.113215413438     -1.637889803518      0.003982392743
C     -2.690548038191     -1.322749107423     -1.363867788384
C      0.078577546390     -0.234052543946     -0.277468949590
C     -0.714342316441      0.946984612970      0.224709291882
C     -1.072469975077      1.979226161283     -0.628491109954
C     -1.787029424857      3.061597328494     -0.159411414881
C     -2.148794994391      3.127597827036      1.169501788946
C     -1.793348591219      2.110201719306      2.029241570571
C     -1.079463237728      1.029057606852      1.557939947597
H      1.664148112793      0.576910563688      0.986215518411
H      5.546983182799      0.399181308149     -1.178919187295
H      4.861009332706     -1.251587223233     -1.266003027492
H      4.219286095096      0.034958376837     -2.322418114115
H      1.966984136764     -2.360017920013      1.129618273851
H      1.472913836889     -1.277958908056      2.448062067141
H     -0.206283442047     -2.353881936728     -0.702472810736
H     -2.452387696493     -2.623071902570      0.345369281585
H     -2.487580790138     -0.932955853877      0.753038096995
H     -3.781758713498     -1.356837914683     -1.365109277419
H     -2.337961213583     -2.033153176903     -2.113136807861
H     -2.394299707691     -0.328254063564     -1.699710485309
H      0.242471905124     -0.127718440905     -1.358906680759
H     -0.782976973367      1.931384702820     -1.664144772682
H     -2.060377212693      3.857917726582     -0.832004702543
H     -2.706303360769      3.973923128243      1.535915613994
H     -2.073085086411      2.159248986908      3.068704730636
H     -0.803322315578      0.228303276018      2.221982754851
