35
OptimizedStructure
C      1.123992932765     -0.947038056481     -0.091968604345
C      2.496044904191     -0.354919423094     -0.290839064964
O      3.005469372256     -0.384536371832     -1.389493150784
O      3.063072172810      0.204919752995      0.816633268431
C      4.312492543515      0.717744804243      0.484456452321
C      0.979275180317     -2.349186843281     -0.716817354012
O     -0.319384419005     -2.463022264253     -1.313567694546
C     -1.048742100360     -1.230080388487     -1.108957322729
C     -2.083618690149     -1.435704268022     -0.000233600152
C     -3.021192033656     -2.581556856179     -0.319233591914
C      0.015735035382     -0.125047170335     -0.795843674681
C     -0.486680418338      1.084071294608     -0.036279471940
C     -1.668578496917      1.704006873980     -0.412060023071
C     -2.125570518959      2.821730668916      0.254217823597
C     -1.395740928076      3.350275819450      1.297007677787
C     -0.201060936291      2.767299644415      1.660159419365
C      0.252590393071      1.650154477430      0.991888343499
H      0.910468162292     -0.993312330973      0.983456498310
H      4.767281448414      1.164726778066      1.370730597617
H      4.941084532030     -0.093664212842      0.110371300226
H      4.191327680444      1.473023838305     -0.295484722484
H      1.718941387462     -2.486106468940     -1.513945795931
H      1.105446902056     -3.157247630601      0.012620933585
H     -1.560211797980     -1.012951641233     -2.058819315131
H     -1.548381914342     -1.635702435176      0.934488880430
H     -2.647696353998     -0.513014960726      0.173565141373
H     -3.736101441162     -2.766750215342      0.485031071750
H     -2.460272392484     -3.502540413305     -0.486289581896
H     -3.589304136555     -2.384151585798     -1.229554198219
H      0.441001571024      0.235723627291     -1.743594138836
H     -2.227306104101      1.308848038714     -1.243027478970
H     -3.051225341798      3.285510456315     -0.044739731484
H     -1.751052303129      4.224527966948      1.817410009270
H      0.384692505860      3.190856725936      2.459421569241
H      1.213203603407      1.233112769288      1.239289529289
