35
OptimizedStructure
C      1.721127779062      0.228776798118      0.612124132164
C      2.974604092389      0.641317757429     -0.144948868303
O      3.433990107927      1.711729723259      0.205434428368
O      3.579145785640     -0.103002772167     -1.138088376883
C      2.929857246920     -1.266328291916     -1.595843468802
C      1.833088774206     -1.079859341583      1.429130625540
O      0.676198295759     -1.882946340465      1.169750185469
C      0.060622718169     -1.445629705633     -0.062716494918
C     -1.436058780872     -1.771158950072     -0.092282665688
C     -2.080137103590     -1.486382510697     -1.437006139098
C      0.429462514485      0.067677872635     -0.238783157590
C     -0.646778436316      1.018714200429      0.227540970065
C     -1.166236671473      1.977848013696     -0.628277304946
C     -2.135854778576      2.856744563677     -0.193190417018
C     -2.595206943630      2.791665387840      1.105101404466
C     -2.080932044486      1.848149665563      1.968570247376
C     -1.111735069554      0.970432482744      1.531532743489
H      1.533861443354      1.054169931742      1.315492163957
H      3.608085174090     -1.773233236683     -2.283345239388
H      2.709094338446     -1.943683706636     -0.774714246064
H      2.027895765449     -0.999389622284     -2.144060874640
H      2.729302247563     -1.651815970898      1.173207561283
H      1.872309300485     -0.892406819388      2.508733681011
H      0.544244327451     -2.037840327483     -0.852732398635
H     -1.566500500111     -2.826110391888      0.177095611722
H     -1.938615763570     -1.213546496521      0.703824650363
H     -3.143205444281     -1.734880322118     -1.441867106266
H     -1.604192234173     -2.062560108091     -2.231917975201
H     -1.989933081421     -0.433347786281     -1.705673456596
H      0.653073679053      0.289572398640     -1.289830416666
H     -0.798465719750      2.037893111273     -1.638168604653
H     -2.530751327932      3.598792903036     -0.867506186805
H     -3.350981197342      3.480286608780      1.445676679211
H     -2.434044769292      1.797846487271      2.985422069808
H     -0.706333724079      0.232504794672      2.202316243867
