35
OptimizedStructure
C      1.667152205390      0.037759512077      0.576189536727
C      2.995994057521      0.572607972299      0.066360040514
O      3.490092875952      1.434835701639      0.767318642983
O      3.618607555232      0.142462029234     -1.087762080727
C      2.952914056845     -0.802586094463     -1.894008859234
C      1.614653079349     -1.490609323237      0.765264682316
O      0.844688477904     -2.040511378188     -0.302927850771
C     -0.104529941884     -1.045555116778     -0.752392729954
C     -1.501419794600     -1.376452423751     -0.228326557938
C     -1.960958108008     -2.744228509531     -0.689445509652
C      0.451973918379      0.366665116112     -0.335951091915
C     -0.567424724482      1.278264919732      0.309934494947
C     -1.151304886705      2.293168472050     -0.432997598160
C     -2.097552363968      3.125236249604      0.127222801508
C     -2.478537802856      2.951433660953      1.440198358686
C     -1.912620613245      1.942588661972      2.189375768731
C     -0.966282056631      1.111601907875      1.627311240377
H      1.516000058179      0.526566574039      1.548804156444
H      3.624806865709     -1.077051187794     -2.708012580879
H      2.715486968886     -1.700129898784     -1.326877814364
H      2.053605059436     -0.366647562874     -2.324129876488
H      2.615155802734     -1.936805050878      0.758566772099
H      1.128765855291     -1.778012874385      1.704846089293
H     -0.120573459952     -1.126643620174     -1.850255201261
H     -1.479208186094     -1.340400938289      0.865633040265
H     -2.210258307959     -0.600841441759     -0.542026099957
H     -2.941065942841     -3.007736900368     -0.286754121095
H     -1.253515701103     -3.513927058114     -0.376515494429
H     -2.025816952103     -2.792878171239     -1.777489629195
H      0.836199607892      0.888570957017     -1.222530371729
H     -0.855813186163      2.429760930883     -1.459102335587
H     -2.537743182579      3.913139874246     -0.461627507623
H     -3.216096518945      3.602687787151      1.879830884428
H     -2.209162248850      1.803322467829      3.216015303161
H     -0.536212465733      0.320344755896      2.216261498477
