35
OptimizedStructure
C      1.447544179412     -0.484755289227      0.135461944516
C      2.661583851392     -0.323142017869     -0.745297595838
O      2.584348438667     -0.611574221950     -1.919577662747
O      3.788956469058      0.135774037208     -0.131340652854
C      4.819555068780      0.220749336109     -1.061194715462
C      1.135215235700     -1.979653273624      0.398401030316
O     -0.163509494628     -2.285279943410     -0.118089511684
C     -0.521669325012     -1.255356967205     -1.057604012806
C     -2.035537146565     -1.199720378459     -1.316906134094
C     -2.870439903609     -1.300898167185     -0.056026361582
C      0.168526232321      0.057166835904     -0.560875825569
C     -0.673585189909      0.920013725278      0.346783275634
C     -1.277376666251      2.067392144014     -0.144359464236
C     -2.055551236097      2.859627630736      0.673353694336
C     -2.242607533338      2.514205149242      1.994694786531
C     -1.652914296429      1.373286068764      2.495227965927
C     -0.876284515917      0.581530096526      1.675542044774
H      1.626933722400      0.056218992963      1.073705630861
H      5.722649851246      0.583833427595     -0.566364280496
H      4.997847466341     -0.770048617817     -1.485590958082
H      4.525452732082      0.910002136178     -1.856096763002
H      1.854502005988     -2.621328528035     -0.122487185223
H      1.154846176570     -2.238549526325      1.463270142915
H     -0.012515901327     -1.556880120851     -1.990593431453
H     -2.278396721002     -0.287302555428     -1.874216333835
H     -2.302400925467     -2.030906467312     -1.982196823336
H     -3.934727215198     -1.407949031047     -0.276099082715
H     -2.762318546938     -0.419355086832      0.573782247729
H     -2.564952682720     -2.163399865569      0.538422099141
H      0.474858972716      0.660188879302     -1.427695197189
H     -1.132047240194      2.337263904194     -1.176252081054
H     -2.516696086125      3.750181387150      0.279043558190
H     -2.849678407879      3.133644138931      2.634296706988
H     -1.801763199480      1.097453545461      3.526224575506
H     -0.437848168588     -0.322431377410      2.060654369891
