35
OptimizedStructure
C      1.300452337256     -0.508045229432      0.744377688807
C      2.656107101313      0.160609065596      0.861703699121
O      2.799151248247      0.843911648434      1.857710018070
O      3.659357305122      0.002541804132     -0.079122576783
C      3.298491474186     -0.412531055983     -1.383958722511
C      1.341030018800     -2.023985515320      0.433661185191
O      0.513274066876     -2.267653513676     -0.706466220740
C     -0.396767440995     -1.152899732129     -0.857462305425
C     -1.692700866831     -1.459341536248     -0.101434111476
C     -2.312524550124     -2.761118335656     -0.565247282700
C      0.373026760803      0.109906359507     -0.337087304309
C     -0.467617451077      1.275176041846      0.139747628258
C     -1.594556427761      1.671963135473     -0.563820807679
C     -2.336405102847      2.761204469446     -0.156748633267
C     -1.947936923441      3.487863177169      0.948152818246
C     -0.805645597123      3.133586906093      1.632723535025
C     -0.067147383239      2.043983142583      1.223641516655
H      0.804638458978     -0.376697338905      1.716394946352
H      4.181294353765     -0.846917869042     -1.854026920044
H      2.503489850414     -1.154403319957     -1.383282382855
H      2.993981658055      0.460418740106     -1.961668783017
H      2.357051950921     -2.373108571635      0.221965684508
H      0.957853387835     -2.631153974838      1.262057222008
H     -0.606017518658     -1.063341583238     -1.934064854195
H     -1.461612259899     -1.512028567399      0.968168603677
H     -2.405906378682     -0.635318983116     -0.207493235055
H     -3.213505424276     -3.013512865419     -0.002419854568
H     -1.606532285067     -3.585526211011     -0.452589707172
H     -2.582858597742     -2.714529138157     -1.621258629252
H      1.001202472526      0.495580992198     -1.148626009766
H     -1.878460372137      1.131790190718     -1.450588171716
H     -3.216217376774      3.049397032564     -0.708276782809
H     -2.525854037736      4.340336044539      1.265485808730
H     -0.481711335980      3.715166918830      2.480246822918
H      0.859574885295      1.808677671926      1.719606117772
