35
OptimizedStructure
C      0.951375973051     -1.001360130382     -0.206029429215
C      2.355971100724     -0.486191232423     -0.006199436246
O      2.728703164541     -0.226397631123      1.118630007417
O      3.104317622006     -0.323330785747     -1.131910423023
C      4.357421728069      0.171869268771     -0.786111630889
C      0.856753052310     -2.122598790580     -1.255837550124
O     -0.385606549106     -1.996375337069     -1.958196503147
C     -1.052123293335     -0.771430873187     -1.561439628142
C     -2.355315059861     -1.115548336158     -0.827721737345
C     -2.136107702044     -1.924898265161      0.433403915124
C     -0.011902037023      0.082570835219     -0.753195238829
C     -0.580611228898      1.035344266414      0.277426517830
C     -1.652943606562      1.854181170862     -0.042202966962
C     -2.169073117018      2.739722542831      0.880632550677
C     -1.604539294524      2.838060969444      2.134011715702
C     -0.510484015306      2.063598060545      2.453418405838
C      0.002477585238      1.179763907905      1.528165004130
H      0.581651092292     -1.366120123936      0.759564401053
H      4.958163339028      0.295105030115     -1.689547635026
H      4.233502436264      1.134598434799     -0.284916683411
H      4.842963785952     -0.532767037321     -0.106932264088
H      1.662943532300     -2.026726518451     -1.991400135881
H      0.914471405890     -3.124483697124     -0.815480459604
H     -1.291851697658     -0.249770323150     -2.501797857788
H     -2.917259314858     -0.203710466100     -0.599573082668
H     -2.991230616074     -1.684786693120     -1.516810140891
H     -3.078342674693     -2.238656700619      0.887549552397
H     -1.591785508636     -1.352527826131      1.185181991062
H     -1.556736676303     -2.824724670867      0.222143027042
H      0.569775728261      0.689334700263     -1.462378702566
H     -2.073660154033      1.805731362582     -1.031883162972
H     -3.010434565813      3.360128308871      0.618921948457
H     -2.005917547311      3.530825910792      2.855359720285
H     -0.046230943558      2.158507497915      3.421330973178
H      0.901664056687      0.633063171321      1.753824938627
