35
OptimizedStructure
C      1.063108434121     -1.014059821622      0.336445901282
C      2.501341865082     -0.557497749946      0.269880780176
O      3.374345110003     -1.336045988398      0.586465115955
O      2.727286698067      0.720571444815     -0.144731682975
C      4.094923047628      0.972569209739     -0.142973003796
C      0.840904536878     -2.314515627095     -0.473528010407
O     -0.188276528030     -2.100327735636     -1.443374601804
C     -0.911983157690     -0.900150652212     -1.103540357293
C     -2.199221431842     -1.254854412885     -0.360005841803
C     -3.077173554816     -2.182360220247     -1.173545529715
C      0.072906235543      0.001924965267     -0.292619675267
C     -0.595007950125      0.924936609939      0.701360383003
C     -0.960257797438      2.181047718738      0.335685460023
C     -1.575991772642      2.988391678881      1.177340502282
C     -1.865298911491      2.576717330939      2.429377291195
C     -1.518505470387      1.328400172026      2.806518545973
C     -0.902772121802      0.523924415065      1.962019272696
H      0.802462605843     -1.172691670349      1.390258442278
H      4.273062193105      1.997264749340     -0.475506325160
H      4.478740209271      0.834270310614      0.870645105671
H      4.585640646733      0.267615441682     -0.818290300109
H      1.753570907645     -2.591245332046     -1.013529334274
H      0.550074481133     -3.162468879777      0.156998743983
H     -1.166652354761     -0.417376385088     -2.059736639899
H     -1.927272233354     -1.728415058093      0.589683835108
H     -2.741068126124     -0.339908609505     -0.093600075667
H     -3.979923527690     -2.474920466209     -0.633748589811
H     -2.535494874212     -3.092163387125     -1.437136360458
H     -3.386826133597     -1.712606555631     -2.108241059526
H      0.649708998334      0.622018799386     -0.993572555496
H     -3.114425859973      1.774845702240     -1.699684567225
H     -0.315109090951      2.550693817480     -2.587808877351
H     -2.366101269813      3.236253777149      3.119020062828
H      1.864275763527      1.599874947687      2.381463556930
H      1.695010433824      3.250287460877     -0.057989611346
