35
OptimizedStructure
C     -4.135476306372     -6.357992804068    -19.705061379139
C     -5.945422393251     -5.613815591551    -23.704346874365
O     -2.029183042246     -0.330281103244    -20.767478076287
O     -3.134277870400     -4.755733975196    -25.680506162088
C     -3.149114482079     -3.501996741269    -22.223250392834
C     -3.557703686844     -2.686390876662    -18.373799944544
O     -4.811697422814     -9.462863252232    -21.580923905826
C     -6.785224252508     -3.530479124058    -20.500652674749
C     -6.146013841670     -6.485288484964    -22.965073277823
C     -5.198388142266    -16.676950023190    -12.687995619105
C     -2.308226563842     -7.242403806487    -23.105719449545
C     33.452485501836    -89.889017617651    -77.520970479492
C    -46.063310689552     45.722899685513    -65.143173937761
C      7.001986675007    -66.876726970543    -92.849355311540
C    -56.531356466423     97.985151416301    -18.680053383851
C     39.539903806947    -68.262567034256     30.769902585507
C    -56.610282863137     77.454248115351     34.946696995954
H     -9.203807242660    -88.653868573300     33.850700719488
H     39.357872953492    -17.142573706256    -66.337788887636
H     -4.819108339943     -1.000003436478    -20.967863256098
H     21.183573187573     -2.250495588167     25.286364763092
H     39.686050866324     -7.594308127477    -56.147664292225
H     -6.720164773045    -36.954479318550     41.688109800932
H    -15.385447450785     -4.295289848943    -76.344498966022
H     -0.224700174504   -125.663710546564    -10.183525814396
H     29.314745506710     43.733409099518    147.162506670905
H   -145.711916019987    -48.716830851610    143.825514527451
H    -60.299830516387    -93.814488794490   -355.238829241890
H     17.404103815817    402.390906657765    -35.018252961168
H      4.246901530940      4.837831111027    -39.815857793132
H    -62.097485704935   -428.226923239575   -1127.025766689283
H   -481.995882770336    296.391980364415   -1048.618350230573
H   -106.652360264691     52.685310902806     23.530725278996
H     81.025571175072    501.483806181736   1304.276996685772
H    787.303186260959   -376.700064097654   1535.849240973275
