35
OptimizedStructure
C    -35.248820693623    -32.295871060277   -137.664963754929
C    -47.922113412323    -37.793129868577   -148.077916283129
O    -13.025960445423     24.680417831023   -107.481262011029
O    -32.667837775223    -45.318042269677   -166.610705616829
C    -45.684371632523     -0.781939575477   -143.970838501629
C    -35.927965319823      1.743785258623   -114.753032861529
O    -52.227727469223    -73.069396572077   -141.761927009429
C    -30.337578291023     -0.652854705877   -130.271938147629
C    -23.867919591423    -38.517530391677   -147.941038898929
C    -15.674253740523    -96.503257399177    -79.290806258929
C     -2.389752979823    -57.667588182777   -140.522274944329
C    211.777982067877   -553.498929093877   -485.489033369829
C   -275.525481347423    282.983753022823   -391.629176771629
C     57.718923548077   -419.187031571377   -572.581188030529
C   -337.361563130023    591.678466823623   -109.622226995729
C    250.311768259277   -439.976320081677    176.364079258271
C   -349.632038978823    469.683372355523    212.691234287271
H    -62.770058904523   -547.373377165577    192.508086655471
H    219.987578084177   -101.273300681177   -405.860489718929
H    -55.766777109123      8.417820498823   -115.029319241229
H    103.801099126577    -18.110651418277    152.840526118771
H    235.646329417977    -28.832830255677   -345.982501065129
H    -51.016217542823   -217.944116412077    247.872097105671
H    -87.785615397623     -9.805300614477   -464.678490453529
H      9.182331900377   -761.894200918677    -76.860726346429
H    184.595666464077    265.719372356723    910.560799439871
H   -888.365316600823   -308.261808499677    878.146564388271
H   -344.204894962023   -541.087830583277   -2207.405805549128
H    125.155675271577   2498.430690948523   -177.513899348729
H     23.389396251377     35.106051976123   -238.900833576929
H   -334.767794630223   -2558.089713212277   -7019.374707293428
H   -2938.400693442023   1924.997718878123   -6480.467390258429
H   -650.227016316123    299.844670647423    146.430216851571
H    458.758727656077   2976.186285222823   8126.934205504671
H   4830.472291665078   -2491.537385286477   9505.394682698072
