35
OptimizedStructure
C      1.257265556489     -0.873190866736      0.151177581493
C      2.602029309510     -0.211020577339     -0.026435899036
O      3.311702396424     -0.033435163299      0.940585543565
O      2.925033268430      0.142737488143     -1.301152702676
C      4.182875873629      0.736831927617     -1.310635446572
C      1.170213799567     -2.239312970638     -0.555859838772
O     -0.141147864727     -2.398352945623     -1.114930592483
C     -0.893513262003     -1.169400630583     -0.958935131744
C     -2.067050347211     -1.392291895862     -0.006519911572
C     -2.984436868518     -2.492881631014     -0.497740866062
C      0.112587287646     -0.062123058140     -0.502636833176
C     -0.479561218416      1.043223687246      0.344237537172
C     -0.871046052869      2.226215698623     -0.264499938987
C     -1.434144512431      3.248980365241      0.469137124774
C     -1.620072416998      3.102285721672      1.826527393102
C     -1.244301309188      1.929765089618      2.445303114780
C     -0.681449977267      0.907846416651      1.709491093060
H      1.072367032328     -0.994666561947      1.223980918440
H      4.441387685995      1.018126449147     -2.333520858148
H      4.161879569728      1.623087719296     -0.672127540025
H      4.914679567497      0.024959237101     -0.921629145787
H      1.888260408569     -2.289275034098     -1.381494858291
H      1.367752560585     -3.079626111628      0.119409407489
H     -1.285256220584     -0.928395049530     -1.959094909779
H     -1.664990134912     -1.651238029151      0.978820669888
H     -2.620754631866     -0.455630116935      0.129075951673
H     -3.803556929118     -2.688431776392      0.197257213659
H     -2.431001438555     -3.423713318818     -0.632179414545
H     -3.422795489270     -2.239188229526     -1.464126970924
H      0.544789236074      0.405689566978     -1.399608414869
H     -0.729013913973      2.341689303043     -1.325371125913
H     -1.727768410135      4.163619834693     -0.019231640924
H     -2.057892148002      3.901357204512      2.402014194431
H     -1.389723201003      1.811184962561      3.506510815345
H     -0.403347205425     -0.005426704882      2.204203481414
