35
OptimizedStructure
C      1.434886751484     -0.396128965287     -0.472824848838
C      2.243059555960     -0.591011493389     -1.739242674483
O      1.635385909014     -0.985324273135     -2.713905098444
O      3.599600918691     -0.357159167164     -1.754237757447
C      4.156702267275      0.073863772494     -0.535480812793
C      1.324229352197     -1.713555462405      0.336011425965
O     -0.056118658765     -2.053138171433      0.493012625804
C     -0.801959471376     -1.360286375873     -0.524947806021
C     -2.276691054646     -1.210295453373     -0.154061708938
C     -2.935515693085     -2.556914134552      0.063505458998
C     -0.040399406900     -0.025165463810     -0.795215539738
C     -0.527638064806      1.134082783513      0.038076409450
C     -0.975963048928      2.301337992735     -0.560209399967
C     -1.410791939198      3.361321300288      0.207648756873
C     -1.401454516775      3.267972024454      1.583320725256
C     -0.956538088360      2.112799613616      2.190176697190
C     -0.522462755651      1.054439425260      1.420604473579
H      1.866821135358      0.405944289757      0.136922908916
H      3.908700890030     -0.624483571949      0.264395872618
H      5.240760610920      0.102443813411     -0.651944221426
H      3.804791484126      1.078741152961     -0.299202645540
H      1.804619903468     -2.538394591712     -0.201934941568
H      1.778523186858     -1.643425908209      1.331049126710
H     -0.720125380474     -2.004018658633     -1.416547139772
H     -2.350074371326     -0.605936230782      0.755916208139
H     -2.796366493183     -0.640916332786     -0.933944052364
H     -3.980422110666     -2.461370226428      0.365491611870
H     -2.413577869555     -3.119951448208      0.839014837473
H     -2.906713999826     -3.161310639940     -0.844436227221
H     -0.117161410173      0.237468562599     -1.859940907885
H     -0.978707077362      2.375517165683     -1.634074059604
H     -1.756504345128      4.264126672574     -0.268458373664
H     -1.740851790866      4.096563455081      2.182985489913
H     -0.949042063595      2.036103828941      3.264986116867
H     -0.183002354736      0.146060715702      1.887489470091
