35
OptimizedStructure
C      1.513258583412     -0.659808500518      0.251563093295
C      2.777634189773     -0.493760061153     -0.560873929676
O      3.658398170278     -1.320675262701     -0.460805300838
O      2.847854173076      0.610510385828     -1.357238063100
C      4.067888864701      0.621585421499     -2.025370566567
C      1.090978046324     -2.148713145146      0.342015684516
O     -0.189822348542     -2.316104905302     -0.276112219401
C     -0.459797706432     -1.154237647248     -1.082309010165
C     -1.961679271310     -0.972534923931     -1.356053018486
C     -2.831309258959     -1.191228860949     -0.134097768532
C      0.291378004697      0.040036783343     -0.407742717997
C     -0.527518863570      0.838862790904      0.576857567192
C     -1.047447991633      2.071287978998      0.211948973451
C     -1.802998314367      2.808577988324      1.099266725438
C     -2.050942500844      2.322600358404      2.365163286016
C     -1.544480664921      1.096752367256      2.740238640588
C     -0.790335171513      0.360307071810      1.850934228198
H      1.693561492535     -0.239855715190      1.249533671534
H      4.124939649805      1.508692476450     -2.659372905651
H      4.875028195792      0.634801667175     -1.289184974464
H      4.146927998929     -0.281012549653     -2.635765425664
H      1.805252449835     -2.783563625329     -0.194939217937
H      1.025958176314     -2.510590911298      1.374443301843
H      0.049131135948     -1.363865643989     -2.039167583240
H     -2.138080243365      0.019263114252     -1.788849879113
H     -2.260506258409     -1.689388259857     -2.131659697278
H     -3.894361952143     -1.203587069045     -0.383840242661
H     -2.688081635158     -0.410270986215      0.610831842586
H     -2.590329824280     -2.142414362817      0.343176381066
H      0.659184030060      0.727013204426     -1.183174353297
H     -0.853260232375      2.451792752675     -0.776107234125
H     -2.198394365760      3.766245860257      0.803030831006
H     -2.640232299043      2.898960652486      3.059338519098
H     -1.740748806625      0.711672135371      3.727353571768
H     -0.417045452229     -0.607350579114      2.136967790596
