35
OptimizedStructure
C      1.617857473744     -0.209853882726      0.480624016344
C      2.747874569711      0.024266819701     -0.492749233668
O      3.818851950447      0.407261438497     -0.073000519872
O      2.482241315405     -0.243745355347     -1.802227741976
C      3.622388591908     -0.005308610062     -2.562978490763
C      1.588279244028     -1.677871392986      0.972912706571
O      0.327380406297     -2.260012528173      0.630154655948
C     -0.272726704307     -1.457433704219     -0.407412951163
C     -1.791541283654     -1.636396170718     -0.472174245117
C     -2.424539942058     -0.908358488797     -1.643877803304
C      0.224742713119      0.004265304188     -0.171372159996
C     -0.684239039651      0.825695385824      0.709197825667
C     -1.166389832071      2.054277043020      0.285035491996
C     -1.986147513645      2.806181283398      1.100378344155
C     -2.330701656543      2.341248192206      2.351899071018
C     -1.852725856972      1.123784460079      2.787619930075
C     -1.033812157390      0.373784493156      1.970613129732
H      1.740784224937      0.482940150846      1.323740191203
H      3.408751373054     -0.221003219700     -3.611785533429
H      3.914521732286      1.041030368266     -2.447448681711
H      4.428621241450     -0.649847485293     -2.204986062213
H      2.370621750713     -2.267458114996      0.482664737249
H      1.726125806862     -1.765050059340      2.056885238790
H      0.168916270909     -1.833627855799     -1.344626124761
H     -2.013983540841     -2.708874812083     -0.521917869015
H     -2.228093085389     -1.299236966808      0.473287386130
H     -2.245857194884      0.166055376374     -1.586409741530
H     -3.505202930257     -1.058478452209     -1.683191047707
H     -2.009483022222     -1.252919044932     -2.592240889538
H      0.352990037760      0.516139389328     -1.135179141618
H     -0.890367728609      2.421092388809     -0.688579354793
H     -2.355073675744      3.759694914023      0.759884794483
H     -2.970204725654      2.929571799960      2.989281301354
H     -2.118418562666      0.758213022040      3.765840424322
H     -0.661440250071     -0.580025685527      2.302138347138
