35
OptimizedStructure
C      1.614629823259     -0.675397979894      0.498479146210
C      2.758603882102     -1.081126258474     -0.406340184044
O      2.886162523982     -2.270446618275     -0.614986828319
O      3.572921485969     -0.133705256451     -0.985502145822
C      3.271009294728      1.205698164157     -0.673902270883
C      1.334644724840     -1.737910055479      1.592010866228
O     -0.038268947604     -2.123509285235      1.523902805477
C     -0.505315117402     -1.848020307454      0.188658941369
C     -2.031229217572     -1.746461197278      0.119255045504
C     -2.552854568125     -1.612914049376     -1.299857010240
C      0.282092463805     -0.588505060732     -0.297649406322
C     -0.432586973342      0.715397738010     -0.043751062899
C     -0.692899835787      1.598910906976     -1.079897949568
C     -1.332004503116      2.796593679239     -0.836921965960
C     -1.715894844008      3.127416609359      0.445407816732
C     -1.458755550678      2.259079158499      1.484868714510
C     -0.819971692282      1.062230424242      1.239695795128
H      1.822328011265      0.289788364266      0.973721496127
H      3.486329933650      1.401858598755      0.377092053167
H      3.908351459924      1.845631731362     -1.285256561352
H      2.228613105603      1.425098474277     -0.906791349628
H      1.932997411514     -2.638774681540      1.409529483382
H      1.550036944026     -1.380670860729      2.605864183000
H     -0.180727882488     -2.719015486518     -0.404485302164
H     -2.460548656969     -2.631788778462      0.603168360873
H     -2.357914867098     -0.900860344962      0.732756327954
H     -3.642599980560     -1.555097952781     -1.331272028251
H     -2.250651856479     -2.463904102422     -1.912135693221
H     -2.164001995065     -0.715641291374     -1.782678094280
H      0.498546430390     -0.677591607475     -1.371303911755
H     -0.387639084002      1.343495240209     -2.080057535063
H     -1.529893451713      3.475298121415     -1.650205465637
H     -2.215064040266      4.063493507936      0.634981370807
H     -1.757214859139      2.514694980055      2.488229934958
H     -0.621229571362      0.376655476154      2.045372423982
