35
OptimizedStructure
C      1.115296944965     -0.874201629769      0.093916307608
C      2.494631338359     -0.261896799288      0.131687107497
O      2.889890266999      0.227700022400      1.168822920485
O      3.195601369682     -0.281599895446     -1.035522865251
C      4.429262250692      0.332189287553     -0.844677243926
C      1.042358011444     -2.161465877309     -0.754286177134
O     -0.177064773764     -2.156060276042     -1.508089784688
C     -0.949054546920     -0.985185998994     -1.154449608332
C     -2.065029423953     -1.393418963463     -0.189219497457
C     -2.947127006452     -2.472249682291     -0.782344043068
C      0.062994429904      0.054395957148     -0.564330372546
C     -0.527836868798      1.120103252404      0.334532238827
C     -1.705322397778      1.762264561723     -0.017520316221
C     -2.238553675211      2.752834561725      0.780446758545
C     -1.589872518515      3.133242261979      1.935440756140
C     -0.398533424984      2.532483939036      2.279901438729
C      0.130931444485      1.542769967026      1.479745006839
H      0.803930508901     -1.090026102388      1.123937789378
H      4.992296280947      0.308229949653     -1.779914876735
H      4.267485843082      1.366252026292     -0.531800859257
H      4.975849583233     -0.203254457753     -0.064899885581
H      1.870328510292     -2.193957921517     -1.471049544125
H      1.078044378409     -3.073851241106     -0.148359454899
H     -1.386601521839     -0.607915429925     -2.090975739484
H     -1.602298576061     -1.752144405500      0.736710844698
H     -2.662899058828     -0.521934452140      0.098064148038
H     -3.719901370961     -2.803551166035     -0.085695396405
H     -2.353518764052     -3.344130189634     -1.062002561572
H     -3.444707310318     -2.120961351137     -1.687576490990
H      0.564763626876      0.569118456341     -1.396034150627
H     -2.199450698361      1.488214462067     -0.933783137002
H     -3.160326572524      3.233923135213      0.497297073842
H     -2.004836022229      3.908191187211      2.558846997016
H      0.126309453464      2.844279176960      3.167992033317
H      1.092960289815      1.121613635005      1.715190584339
