35
OptimizedStructure
C      1.375035263900     -0.773260673975      0.151255766480
C      2.689214692408     -0.388816007267     -0.489420033438
O      3.639186051788     -1.132808527195     -0.373690793822
O      2.722785561711      0.802118279585     -1.152050778660
C      3.995876290569      1.004354040629     -1.674398059092
C      1.050121410909     -2.266924985622     -0.080827666537
O     -0.041689824808     -2.369124644989     -0.993297211067
C     -0.809830215922     -1.150212410979     -0.933211288701
C     -2.045556994807     -1.346331263472     -0.055671876480
C     -2.926635857321     -2.463902141309     -0.574520423277
C      0.165798910213     -0.014425827711     -0.468835227552
C     -0.450038704971      1.031733832382      0.431987679393
C     -0.834419266403      2.253636006886     -0.099049757760
C     -1.417787333189      3.218235949829      0.695139397898
C     -1.630204678408      2.973049100288      2.034542387517
C     -1.259358211533      1.761063077132      2.575773398204
C     -0.675599616582      0.797778189033      1.779826248999
H      1.452455523804     -0.557182327450      1.223628968460
H      4.718515264578      1.010221789697     -0.855017081092
H      4.230879978910      0.187980070030     -2.361413271947
H      4.021874534956      1.958946132482     -2.203807386077
H      1.908364280438     -2.784611695038     -0.525692538646
H      0.774122964747     -2.789038905190      0.842430569431
H     -1.138719561952     -0.955744304763     -1.966174587944
H     -1.714009729264     -1.574598214440      0.962548949895
H     -2.607392655135     -0.407133623637      0.012185742683
H     -3.791255485704     -2.640306840891      0.068550970538
H     -2.365100398715     -3.397098532543     -0.642598733731
H     -3.298262954824     -2.240918485743     -1.575816165977
H      0.547103120063      0.499635909409     -1.363073996305
H     -0.669670234798      2.446228055155     -1.145292152139
H     -1.706724354105      4.164535504851      0.268172178128
H     -2.084951240455      3.726468288687      2.656587463798
H     -1.425986828048      1.565512353663      3.622339979619
H     -0.398139702049     -0.149057167525      2.208889329201
