35
OptimizedStructure
C      1.480395902698     -0.096368363170      0.342165641554
C      2.584234555946     -0.206465348289     -0.685174172060
O      2.378703675942      0.144529012239     -1.827274023483
O      3.772874258130     -0.695349204870     -0.231540088130
C      4.687641986080     -0.733667770245     -1.278462679372
C      1.440669085985     -1.322578789663      1.289142917019
O      0.170662749237     -1.971089519370      1.165809391961
C     -0.443580804337     -1.534767851392     -0.064140172604
C     -1.965651714354     -1.696919201651     -0.040747136336
C     -2.617091288728     -1.368161397689     -1.371674393573
C      0.075520941031     -0.084215502916     -0.319789424804
C     -0.804130060890      0.995745678102      0.259445913957
C     -1.261088340720      2.039323690979     -0.530411093649
C     -2.052505048042      3.032461194205      0.007533546822
C     -2.392621763367      2.997543075426      1.343324809231
C     -1.937660116466      1.969325847492      2.141085027161
C     -1.146875788398      0.977562043311      1.600967681860
H      1.625833697834      0.832081617465      0.909942659121
H      5.640362648310     -1.120395312439     -0.911007196777
H      4.298962352298     -1.382748494393     -2.066542847720
H      4.820168654074      0.277172727163     -1.671145826314
H      2.213423369736     -2.049096757771      1.014736034241
H      1.588801021054     -1.051031137723      2.340598569758
H     -0.029838050115     -2.200728869668     -0.838512732903
H     -2.201878928536     -2.725078123240      0.257992681901
H     -2.376554851907     -1.068414805123      0.755595944603
H     -3.700082869822     -1.502769297619     -1.341366257304
H     -2.228391627929     -2.004352280383     -2.168256075121
H     -2.424398128002     -0.334888806473     -1.662969304336
H      0.192080390286      0.087885716831     -1.399214654660
H     -0.985409677811      2.072268473757     -1.570434010937
H     -2.402234841752      3.838494477451     -0.616344292021
H     -3.010187860227      3.774232944559      1.763688216788
H     -2.199283823766      1.940430327901      3.186006984243
H     -0.790869703475      0.170030007207      2.216970361885
