35
OptimizedStructure
C   -6297.421687372144   -4593.183328612949   -25167.160306838141
C   -8798.379810770644   -5616.391769032050   -27067.822236821547
O   -2521.903489167044   4932.368211384951   -19506.876649809543
O   -6188.560256135944   -6818.021272977549   -30122.988080248844
C   -8521.992155296844    774.311828010951   -26497.677571439646
C   -6434.475415302044   1541.965096854151   -20693.056313539644
O   -9285.003420907144   -11408.097340893950   -26029.563480383244
C   -4932.891265400444   1083.065137116051   -23207.237442357942
C   -3695.844850770044   -5393.612721784550   -26920.236427416243
C   -2271.851738946644   -16525.690635622250   -15081.603007742242
C   -607.240788056044   -9424.941590418750   -25358.365227611343
C   37069.134344107559   -96448.360184365243   -89261.206832902841
C   -47498.209768217341   53446.779114859259   -67551.919804125748
C   12370.681145246854   -71217.225044363338   -104232.993239019153
C   -58761.290079854145   105350.038246330951   -16430.837665183444
C   43147.504873730060   -80612.922997989343   27599.241607355056
C   -61241.617552968637   84224.363883843253   37900.618813943460
H   -13850.771094772645   -97595.653039734840   30523.199926079051
H   36355.549150492654   -15914.548964617448   -70048.567755932643
H   -10522.707681941743   2455.187819675551   -21121.833641359146
H   19339.999915678058   -5181.334713576749   30821.868246119262
H   43151.882535954959   -3921.159617699349   -61953.664056079746
H   -10718.774979788745   -38410.362067324946   41301.008198343960
H   -14922.742597558445   1251.179583067451   -85037.841456490743
H   -1873.268985326945   -136779.770479714032   -17999.602507338645
H   31687.381378565162   41864.311359749059   163048.270791604969
H   -163729.437848566246   -56023.215198053644   153698.801264015550
H   -57237.907669882232   -82017.943516052561   -395887.397133925813
H   34243.773493002154   446525.942069760931   -17693.354875941943
H   5145.275215228956   7707.827905648149   -42945.591829718338
H   -51182.095348647446   -417937.938950764481   -1271525.311799744610
H   -507240.624252156005   389544.858730772394   -1151285.373801793670
H   -107254.547587887660   59078.766318986847   23677.435743644255
H   72377.001651482962   485632.830279078218   1472339.339538380504
H   830701.376622203737   -523573.422151540231   1697718.299014278920
