35
OptimizedStructure
C      1.531974242792     -0.473589925830      0.282015261650
C      2.683510676346     -0.368269205060     -0.691786544835
O      3.508372168083     -1.254866592524     -0.747474185827
O      2.717400423131      0.763487959077     -1.451077773935
C      3.829737730689      0.726885612239     -2.285574439680
C      1.204833298916     -1.945426556088      0.641072142113
O     -0.156999051120     -2.221852294337      0.298854173478
C     -0.595041473987     -1.226197372867     -0.645383065864
C     -2.115457693495     -1.070096469880     -0.645621961531
C     -2.809462313077     -2.371452774047     -0.991257459746
C      0.208694033892      0.073049703748     -0.321938064700
C     -0.498886659677      1.006687722245      0.628476538461
C     -0.762238672328      2.319638241931      0.270358536220
C     -1.400828346944      3.171823863870      1.146819250398
C     -1.782376269430      2.722429535512      2.393297095570
C     -1.523673918105      1.419527648855      2.762273884610
C     -0.885301571172      0.569433541569      1.884411677273
H      1.787376467318      0.098834480764      1.183378138293
H      3.858564377108      1.635852607402     -2.889810080586
H      4.730985192656      0.656491835946     -1.672081600556
H      3.760472126916     -0.150819193030     -2.932311918955
H      1.837683934543     -2.630112736284      0.064606863574
H      1.347251381414     -2.165458464922      1.705305631088
H     -0.277647680379     -1.610833025354     -1.627944069868
H     -2.433507745069     -0.728486520473      0.344680513319
H     -2.404008068445     -0.274441930966     -1.342872980260
H     -3.897061850905     -2.280952067341     -0.957465084477
H     -2.518115495630     -3.159703904678     -0.295133757068
H     -2.536032265286     -2.711064365186     -1.991427602334
H      0.434673572561      0.614055002995     -1.251378676889
H     -0.457446709918      2.671853554528     -0.700036533811
H     -1.599263756861      4.190807340526      0.857808419584
H     -2.280461317913      3.388746897217      3.078334581153
H     -1.820296668633      1.065117209328      3.735699943426
H     -0.687422097994     -0.451099358886      2.163183150714
