35
OptimizedStructure
C      1.691388304620     -0.218357755386      0.378990998153
C      2.966759300510      0.472658082286     -0.081677171222
O      3.527133595947      1.108644978302      0.790775928523
O      3.462191226790      0.440064661963     -1.370665108552
C      2.882599817717     -0.454759513339     -2.293022163629
C      1.624889925283     -1.753949317523      0.229839498059
O      0.290799738120     -2.110645949135     -0.142811999991
C     -0.324013967966     -0.987157952711     -0.809339330244
C     -1.844114168002     -1.013280844936     -0.645222972658
C     -2.446237224817     -2.276821897454     -1.224991373991
C      0.386264822200      0.311543855245     -0.283984617172
C     -0.446382949290      1.122712928644      0.680292784671
C     -0.844467186698      2.410505944620      0.355982093374
C     -1.600253544431      3.156339379983      1.235974868781
C     -1.968789282107      2.624160170083      2.453073380868
C     -1.580040048727      1.344874983046      2.788193346832
C     -0.824200460792      0.600813245456      1.907123527536
H      1.619811754116      0.014389126818      1.451288699571
H      3.138886443108     -0.112567946551     -3.296365448590
H      3.306315559428     -1.448933171464     -2.152608118371
H      1.801765343644     -0.476952724866     -2.201770774635
H      2.308145216401     -2.130102636899     -0.533570017844
H      1.866460447321     -2.273831465190      1.164503536007
H     -0.099520011580     -1.130235858689     -1.876927944536
H     -2.083517675817     -0.943456014529      0.420433481780
H     -2.281409285466     -0.121738332020     -1.110496567537
H     -3.527112864376     -2.324037808952     -1.077754309966
H     -2.007072531687     -3.160905868282     -0.759794471027
H     -2.254521028626     -2.350341256733     -2.296561880283
H      0.655285238918      0.959880816168     -1.128627741250
H     -0.550971328200      2.829651742445     -0.591060044541
H     -1.899111992088      4.157871744119      0.973456710711
H     -2.556857111209      3.207950089526      3.142100277872
H     -1.864935028144      0.926548805671      3.739551140464
H     -0.525169044100     -0.400534239716      2.165671782838
