35
OptimizedStructure
C      1.344859782803     -0.477184443981     -0.445844728538
C      2.575810007311      0.339936114127     -0.775737681170
O      2.552513933111      0.953567084039     -1.823026183694
O      3.657780243936      0.362772159044      0.076365836631
C      3.574664864823     -0.484307894598      1.198791399645
C      1.341978801490     -1.853089455333     -1.143085723878
O      0.012289412848     -2.150853091865     -1.588731970461
C     -0.867809197807     -1.058559379931     -1.234868396618
C     -1.727735553565     -1.470034723806     -0.037821339229
C     -2.511838373229     -2.733799649089     -0.324289609102
C      0.044623692770      0.185070496071     -0.971300986841
C     -0.543291418793      1.268121820903     -0.092959431001
C     -1.833808756756      1.722494060797     -0.317881509183
C     -2.373157730009      2.734021904654      0.448846953527
C     -1.621295975211      3.322396339598      1.442704865122
C     -0.325488496040      2.905391781934      1.657457154014
C      0.210239336235      1.892859601832      0.889961322753
H      1.244532468553     -0.606315354710      0.637374935460
H      4.548133433501     -0.486678968643      1.690597576770
H      2.831272329215     -0.108586823589      1.902330562492
H      3.337965872240     -1.502442462080      0.888858112624
H      1.987281433637     -1.833457804709     -2.028341814752
H      1.680630807515     -2.665369485286     -0.490284799908
H     -1.510261999674     -0.884927159886     -2.111383098970
H     -1.066522540607     -1.623329488410      0.822112950052
H     -2.400983660425     -0.654568623876      0.248023690731
H     -3.095164749204     -3.062753353240      0.538111152815
H     -1.840952287421     -3.547683116755     -0.604170895842
H     -3.202389073660     -2.588967415280     -1.156509134683
H      0.298319860097      0.650787816063     -1.935395095944
H     -2.413281317982      1.284211749838     -1.112236018624
H     -3.380581162353      3.069774222450      0.265379294115
H     -2.040197983161      4.115468175244      2.040163546564
H      0.273940485555      3.378822988079      2.417677527402
H      1.237923510257      1.607212380392      1.029111537722
