35
OptimizedStructure
C      1.554333396428     -0.785690274820     -0.169065532459
C      2.590647295650     -0.827025206899     -1.272130362756
O      2.550969079758     -1.785517630351     -2.016488554185
O      3.494519692527      0.199675503829     -1.430409931292
C      3.386352768891      1.257793968287     -0.507811199666
C      1.162853238592     -2.206152612533      0.312795600593
O     -0.255751996945     -2.350691332905      0.230823758533
C     -0.736293160019     -1.410621054637     -0.747633998167
C     -2.220987489858     -1.101444292602     -0.559176525171
C     -3.067574392952     -2.353337138931     -0.663635124427
C      0.219074748806     -0.176213204279     -0.682443660319
C     -0.278600852294      0.929772241107      0.214547742508
C     -0.522232329441      2.198227599767     -0.288722952078
C     -0.968137507016      3.207733495652      0.538391443770
C     -1.176512217239      2.961477008416      1.878951893120
C     -0.939505242973      1.703617938462      2.391035437984
C     -0.493804097808      0.695816356201      1.562479646842
H      1.922645217610     -0.201518943110      0.681611181326
H      3.675954868676      0.916797863201      0.486782929273
H      4.071743259993      2.047178955318     -0.818547157324
H      2.371768184501      1.657155940343     -0.503524264304
H      1.604099304192     -2.965663465241     -0.343833798470
H      1.479295667171     -2.414726083178      1.341475434939
H     -0.597786148860     -1.920961186765     -1.715039218240
H     -2.360119460541     -0.636369794742      0.422200857998
H     -2.537529384611     -0.351245447724     -1.293646409930
H     -4.126776158448     -2.151014842589     -0.492440164943
H     -2.746746122322     -3.096858346673      0.067892436726
H     -2.972689133929     -2.812697755027     -1.648750032499
H      0.374190675607      0.225109723764     -1.693660840394
H     -0.357963130736      2.390679838193     -1.334986124723
H     -1.153153555161      4.190245827065      0.136301051213
H     -1.524821337539      3.750515707738      2.525053110797
H     -1.103895930724      1.507218258614      3.437724542522
H     -0.317567748987     -0.291267612955      1.953878783202
