35
OptimizedStructure
C      1.544760975918     -0.298987574409      0.455213648164
C      2.769424516924     -0.134079088172     -0.411968079389
O      3.845919478740      0.052053063850      0.113878945813
O      2.572820646336     -0.234544804863     -1.756608016696
C      3.789855065391     -0.084882162887     -2.413898058503
C      1.238971755388     -1.792597280452      0.727335886400
O     -0.079039940067     -2.092913780668      0.258183835895
C     -0.466217075532     -1.070092623171     -0.679722154084
C     -1.984824007387     -0.961190630054     -0.811188253388
C     -2.599763277937     -2.266831323773     -1.271282930304
C      0.259602695031      0.238006228469     -0.232456475771
C     -0.560075367127      1.101262564397      0.694559189059
C     -0.858417052279      2.414378333566      0.365555232523
C     -1.602331114163      3.200676861773      1.220308512609
C     -2.056645680908      2.684208886356      2.415316369027
C     -1.766175592963      1.379844404448      2.754141964223
C     -1.022592717481      0.595641960782      1.898028331720
H      1.713572586398      0.243256845555      1.395049350990
H      3.631258806620     -0.166112539571     -3.491114985884
H      4.207889468234      0.894412445564     -2.169534407433
H      4.473857500377     -0.867007385871     -2.076306886257
H      1.939186888659     -2.436653831239      0.184387334825
H      1.295202889765     -2.050599938250      1.791198825697
H     -0.047004393403     -1.400727435272     -1.643941531288
H     -2.401027697454     -0.673216624535      0.159666281575
H     -2.237400849773     -0.144963716565     -1.498536835331
H     -3.688497703601     -2.211312688190     -1.332714385243
H     -2.344806060467     -3.075528086703     -0.584399698638
H     -2.226402669883     -2.553629129371     -2.255558754926
H      0.543857437659      0.827407850167     -1.115238549177
H     -0.500086431546      2.818625453820     -0.565468503872
H     -1.826733008970      4.220620223115      0.954603828576
H     -2.636869532033      3.299164166168      3.083535444531
H     -2.120251743306      0.972764110351      3.686917548198
H     -0.801018795161     -0.426452754366      2.152057976358
