35
OptimizedStructure
C      0.919060509968     -1.109213725921     -0.313363886157
C      2.342408283065     -0.617643918244     -0.379386965658
O      2.902483613552     -0.553484341856     -1.451555244508
O      2.894482142630     -0.251621742322      0.813275960452
C      4.195902343135      0.190498656754      0.601006855823
C      0.699034109325     -2.415793443397     -1.094306572142
O     -0.616920824074     -2.400373877809     -1.659450224222
C     -1.209275469250     -1.087724382136     -1.488020675963
C     -2.444479370874     -1.200424659599     -0.585232453200
C     -2.126111968786     -1.737949375986      0.794347886744
C     -0.075837239888     -0.127302169051     -0.980770534534
C     -0.517921747889      1.040397853577     -0.124520564052
C     -1.575725675758      1.840207371153     -0.529011103981
C     -1.979612571361      2.918986341739      0.229323032399
C     -1.316139816297      3.229096860351      1.396746860755
C     -0.237012014730      2.468935997899      1.792396057751
C      0.164112878608      1.391447089776      1.031641699574
H      0.647844155934     -1.254181977956      0.739000133560
H      4.639372843195      0.480936060027      1.555556243827
H      4.776025025778     -0.617648089883      0.149433844137
H      4.174666128824      1.046249505212     -0.077793014510
H      1.413471415103     -2.487675197555     -1.922268137274
H      0.806850998610     -3.309866504717     -0.469685138801
H     -1.522919088874     -0.773029808418     -2.496245481031
H     -2.949820720174     -0.231824238486     -0.508203738345
H     -3.163956889949     -1.867089563018     -1.076305931299
H     -3.027436366554     -1.898449672728      1.389602331773
H     -1.489310263296     -1.051284201658      1.352912747990
H     -1.600752394977     -2.691710589281      0.727639473866
H      0.443945082539      0.294693793938     -1.853725650242
H     -2.075295200794      1.619477186081     -1.456703006286
H     -2.810736776309      3.523573153801     -0.094688833451
H     -1.629818259587      4.072695465572      1.989469736049
H      0.301865031806      2.723939048404      2.690139253206
H      1.047558097350      0.843157095738      1.308745037751
