35
OptimizedStructure
C      1.250599831002     -0.985312357608      0.079399883797
C      2.527259360738     -0.182993598013      0.120563290935
O      2.846336068441      0.354522202232      1.160068729693
O      3.225652916904     -0.100868444652     -1.045188194019
C      4.358195341945      0.683069912236     -0.850913161383
C      1.366134847999     -2.298475819964     -0.723070317007
O      0.156194659128     -2.493033372463     -1.468170524589
C     -0.783948718434     -1.440221052536     -1.134198671569
C     -1.790497406964     -2.003662371294     -0.114892407109
C     -3.059842403974     -1.191220200593      0.072201712795
C      0.094538300296     -0.241209278714     -0.633851682565
C     -0.598377571621      0.853303766589      0.146679867261
C     -1.656923651891      1.537534195009     -0.431522454655
C     -2.293761264530      2.558798841728      0.241859122832
C     -1.866822476128      2.926847692252      1.499454881427
C     -0.790479279662      2.283968959359      2.071798730313
C     -0.155038607926      1.263810740110      1.395530978792
H      0.950766675352     -1.211289034858      1.110358521496
H      4.919047737540      0.743900596565     -1.785816338095
H      4.049002824488      1.681827832934     -0.534100315404
H      4.975699123568      0.228630817255     -0.072608977243
H      2.189456902622     -2.235608040945     -1.443125060101
H      1.533093759510     -3.174818797893     -0.086615688085
H     -1.304982422500     -1.176102378615     -2.066241537836
H     -2.051545335141     -3.016878988520     -0.444774797092
H     -1.277396089496     -2.144308253060      0.842361513388
H     -3.792248543412     -1.719399719817      0.686230289116
H     -3.534060694042     -0.971878916376     -0.885486361207
H     -2.862145145849     -0.241717441699      0.568031877945
H      0.540882396619      0.240844045111     -1.516524813280
H     -1.980930402597      1.260116944345     -1.420009720687
H     -3.122981575040      3.071471946948     -0.217251997310
H     -2.362140640212      3.725773293862      2.026451211981
H     -0.433580982675      2.589730691535      3.041614084763
H      0.734842465941      0.824845589551      1.811758322701
