35
OptimizedStructure
C      1.047087381400     -0.505670534395     -0.626256411461
C      2.042014444050      0.245686606958     -1.488813485582
O      1.622119699327      0.708120242378     -2.530386031726
O      3.355897827749      0.375987282331     -1.098891372406
C      3.685727642579     -0.209036056307      0.138226485757
C      0.996073979206     -2.009480820293     -0.972433199130
O     -0.370510026508     -2.427349870275     -1.060859544701
C     -1.233020359215     -1.360115701727     -0.599116257119
C     -1.647647096098     -1.669026333436      0.848164375474
C     -1.925371118202     -3.146167553736      1.046906716685
C     -0.413783298966     -0.038092130631     -0.856885357180
C     -0.729722712251      1.294580098486     -0.190483148047
C     -0.054586960662      2.409279748331     -0.670035347426
C     -0.258413249362      3.664303249787     -0.139463271320
C     -1.153516352550      3.833938897431      0.892477447457
C     -1.838607921300      2.744128640668      1.382679301523
C     -1.629190870807      1.489696867290      0.846142156084
H      1.277735501154     -0.357496012855      0.434925058649
H      3.412245495914     -1.264165964852      0.145189565713
H      4.764863035120     -0.126660055315      0.273093050323
H      3.191240577708      0.327057541457      0.949014781817
H      1.456586912128     -2.192907008833     -1.949525101577
H      1.503495726768     -2.637324708706     -0.231646724986
H     -2.119988897598     -1.392282614292     -1.250264314046
H     -0.846746899462     -1.344250579086      1.521813876190
H     -2.541741137020     -1.100864898345      1.121999200817
H     -2.196408474544     -3.382590164496      2.077961169178
H     -1.049095429132     -3.741897054605      0.786870884994
H     -2.738802833508     -3.482643764870      0.402330761698
H     -0.489307338579      0.155560997196     -1.939131620785
H      0.647057770709      2.276764664941     -1.476014298652
H      0.282599505737      4.509913877937     -0.531441244000
H     -1.318201011091      4.812714441036      1.312377079072
H     -2.543167337447      2.872787816291      2.188085286707
H     -2.186916175246      0.667500854537      1.243389532006
