35
OptimizedStructure
C      1.080097019848     -0.588607529811      0.374933986143
C      2.372866206034      0.117847634381      0.039177512973
O      2.698415573276      1.095283863273      0.678612842904
O      3.081183485899     -0.387316553072     -1.009293037970
C      4.230515907057      0.372044882015     -1.204477592291
C      1.155313576188     -2.108514718594      0.104875040178
O      0.054120839579     -2.493281324341     -0.721172139881
C     -0.924840953273     -1.428334827052     -0.739308690555
C     -2.030364798491     -1.772960614708      0.269293739210
C     -2.375859166258     -3.248861349531      0.238319733197
C     -0.096009123611     -0.104357738839     -0.510642491843
C     -0.714788894414      1.198750880747     -0.016866790539
C      0.074855489553      2.338661461571     -0.095361789046
C     -0.381698166598      3.568215457159      0.328398373620
C     -1.651035714732      3.687584900679      0.846678802503
C     -2.450888771643      2.570876619221      0.942130017132
C     -1.986308129616      1.342278204568      0.517981362797
H      0.837369710926     -0.390240976580      1.426853808094
H      4.804771059341     -0.050043424736     -2.031654247049
H      3.944192178449      1.400481453647     -1.435239787023
H      4.826625615181      0.356383578350     -0.289147025807
H      2.072352488183     -2.356771590889     -0.441254982722
H      1.131045802401     -2.706213339830      1.023016081311
H     -1.348183846057     -1.436375548941     -1.755586246899
H     -1.693382489177     -1.489042584336      1.272651826837
H     -2.934341857191     -1.193402393728      0.056540225313
H     -3.144086418838     -3.510495996157      0.968955337672
H     -1.494285090236     -3.856150322346      0.448930623176
H     -2.737158546899     -3.546977920172     -0.747049014151
H      0.350533230528      0.139191737910     -1.487353660881
H      1.080523471468      2.248157165589     -0.469375649672
H      0.258432977189      4.432628125119      0.261938527140
H     -2.013239113890      4.645908204979      1.181125556680
H     -3.443465197062      2.657007253193      1.353304133546
H     -2.633278353117      0.496647331259      0.620065615902
