35
OptimizedStructure
C      1.000343934195     -0.669752840561     -0.220238064219
C      2.220567355145      0.070475289893     -0.717822791154
O      2.131753064795      0.827463096945     -1.660436743000
O      3.376881286195     -0.194346408345     -0.046360462462
C      4.419780412206      0.529052579607     -0.615166616441
C      0.938858319283     -2.108387722506     -0.776783769410
O     -0.379359497337     -2.365472192871     -1.271054179917
C     -1.266170842257     -1.301957043532     -0.848756475189
C     -2.037468013102     -1.783014914329      0.390576053318
C     -2.433283711681     -3.241762407603      0.272631035459
C     -0.336295689324     -0.038005044482     -0.686831234586
C     -0.729478173640      1.197475436477      0.113235377158
C      0.095232188783      2.307983431703     -0.006237573776
C     -0.161897356833      3.479667033193      0.671436396693
C     -1.263104703359      3.567583075628      1.492616239317
C     -2.097989141796      2.480296359997      1.626387023762
C     -1.833837073835      1.309947799412      0.943821913279
H      1.021728790706     -0.680549148780      0.877126213913
H      4.201461847070      1.595988183902     -0.531489043458
H      5.348548315209      0.295760793855     -0.090622640195
H      4.507387502205      0.256677813978     -1.669539476840
H      1.632387968679     -2.224997651817     -1.616656705972
H      1.185929620147     -2.865726249175     -0.024258632376
H     -1.969038891722     -1.152859620234     -1.682678281610
H     -1.409172614994     -1.635876049341      1.276246635184
H     -2.940410908363     -1.182697664746      0.538014368174
H     -2.960785735005     -3.601597451767      1.158474910664
H     -1.552918237338     -3.870220157263      0.130124708297
H     -3.080712331138     -3.404156271207     -0.590396761374
H     -0.144159909960      0.327879817386     -1.708090561277
H      0.958976988453      2.236813633080     -0.644497144053
H      0.498433597926      4.323900877921      0.559443410365
H     -1.470658283461      4.480615216957      2.026208297363
H     -2.962663224343      2.544966737409      2.266542830026
H     -2.508866851511      0.488831661219      1.065031744339
