35
OptimizedStructure
C      1.716760681087     -0.110316957473      0.335544654963
C      2.976218989829      0.515254912610     -0.248922964985
O      3.508300152007      1.325635085871      0.485929189174
O      3.487159699832      0.251026495159     -1.503761898504
C      2.888336979817     -0.770081454937     -2.266916095930
C      1.602547745420     -1.651655819412      0.302305774111
O      0.409647984012     -2.029827236684     -0.402691694893
C     -0.286921858185     -0.860530475206     -0.903769374273
C     -1.787503577628     -0.979650790749     -0.635321030318
C     -2.379096995347     -2.203806336792     -1.303592472815
C      0.395602787321      0.414270130194     -0.292108284718
C     -0.458413081942      1.161494873245      0.705280060041
C     -0.956360503403      2.418644682262      0.398954063585
C     -1.740335788239      3.105243801294      1.302141800334
C     -2.039086998261      2.542922316556      2.524710233530
C     -1.552739748932      1.292725282379      2.841508244839
C     -0.768745706390      0.607873360938      1.937205926329
H      1.720787232868      0.206993240235      1.389247634435
H      3.106728296646     -0.577653521255     -3.317989357830
H      3.321707916848     -1.732470204429     -1.995211810626
H      1.812890139603     -0.779476666174     -2.130311694447
H      2.463246748293     -2.118912014749     -0.181448140882
H      1.532661239089     -2.080820590400      1.308519839740
H     -0.144777448783     -0.875688911607     -1.994476568752
H     -1.945224876556     -1.034687785334      0.446467493609
H     -2.297196488750     -0.067504065921     -0.968146027426
H     -3.442317863453     -2.320420329224     -1.084128183850
H     -1.868262516385     -3.108753347552     -0.970451117253
H     -2.268279268275     -2.154472033132     -2.387894099788
H      0.657762183415      1.110534727273     -1.101265830750
H     -0.719934908617      2.860627874083     -0.553672229613
H     -2.116665293846      4.083820322552      1.053022621871
H     -2.649533149731      3.080260963528      3.231826234490
H     -1.783940024235      0.850611245537      3.796669763660
H     -0.395022679131     -0.371210772686      2.182745342942
