35
OptimizedStructure
C      1.081321162194     -0.884192211521      0.119543368545
C      2.523250225832     -0.441042764090      0.007335456668
O      2.913395934191      0.458970719452      0.720146711290
O      3.295139282610     -1.078213455565     -0.918210134220
C      4.578937971106     -0.543121268475     -0.899516782978
C      0.777592236866     -2.161141500351     -0.689346376198
O     -0.464064927904     -1.989068299195     -1.363978461595
C     -0.667412018093     -0.579326354065     -1.583721852360
C     -2.155068676569     -0.287490245997     -1.859813987051
C     -3.071985580111     -1.243339310780     -1.112880903840
C      0.104091522992      0.198534345308     -0.435781754670
C     -0.575499969414      0.945595535301      0.711541770854
C     -1.939154377674      1.097307008939      0.915129200310
C     -2.429801582513      1.814423093495      1.987829600756
C     -1.567464138098      2.402734409481      2.885626172854
C     -0.209976148081      2.270049440687      2.704618287038
C      0.270738850659      1.552427510487      1.631432661810
H      0.851866334942     -1.055312610719      1.179128055848
H      5.195970165815     -1.059419276661     -1.637676686787
H      4.524069901427      0.521696949398     -1.136964100864
H      5.003183641882     -0.672324253991      0.098834409905
H      1.547520643107     -2.330361715456     -1.450408744698
H      0.716070890616     -3.058335867081     -0.062327847304
H     -0.110159402245     -0.384532894088     -2.517359898317
H     -2.375381451367      0.765606806495     -1.653119763609
H     -2.349714103158     -0.396255178801     -2.935281697979
H     -4.125722257368     -0.976630545472     -1.216524163162
H     -2.833987545690     -1.289035477036     -0.049911043126
H     -2.948247099897     -2.260573101430     -1.488432312503
H      0.723092897713      0.959489439068     -0.935531505943
H     -2.645324938818      0.665544156613      0.238098842784
H     -3.494208792430      1.916424716464      2.123375687731
H     -1.952029465557      2.961999243155      3.722750870109
H      0.475990407477      2.723362339223      3.401276568731
H      1.332970405558      1.435550617211      1.500120351975
