35
OptimizedStructure
C      1.496265952731     -0.093141825142      0.326150146517
C      2.586644439330     -0.226647771494     -0.712827358122
O      2.354166295718      0.055754214907     -1.868693324159
O      3.795433531171     -0.656787270674     -0.253018695610
C      4.695359861202     -0.726072081278     -1.311142735063
C      1.484063810268     -1.287718198638      1.312963158319
O      0.211515000554     -1.938841673769      1.247705653756
C     -0.434496049395     -1.551923302730      0.017542062340
C     -1.957118770643     -1.698494612728      0.097632405100
C     -2.671107306995     -1.390218962705     -1.231338052416
C      0.081356643491     -0.115664803611     -0.314467490373
C     -0.796883291483      0.988883982334      0.218467193964
C     -1.320767546184      1.951316694968     -0.630588338623
C     -2.118631333060      2.962661995039     -0.138076118845
C     -2.400223511028      3.026163719741      1.210203365276
C     -1.881556998261      2.077377260997      2.065445394616
C     -1.084481998685      1.067062887664      1.570757147908
H      1.640767275801      0.854734600128      0.861044080409
H      5.664074347369     -1.065810796672     -0.939077758704
H      4.313800488505     -1.427244425450     -2.056950935392
H      4.793087559606      0.265419475586     -1.759427609085
H      2.248599699232     -2.023292235771      1.039728977957
H      1.663140213256     -0.982546059128      2.350300705406
H     -0.049812108673     -2.253718385469     -0.739823134622
H     -2.189267327887     -2.714708004922      0.439468723366
H     -2.325739385877     -1.049696425566      0.899417797729
H     -3.220258130759     -2.252721473469     -1.615596162151
H     -1.958497791150     -1.099808816512     -2.005268618821
H     -3.386258913411     -0.570007884604     -1.135397759888
H      0.185473261250      0.004323118964     -1.402153732246
H     -1.094167204797      1.905463828339     -1.681886239196
H     -2.519845035947      3.705586004601     -0.807637296806
H     -3.022867230876      3.817082164665      1.595043748413
H     -2.099080866980      2.124500679243      3.119774352061
H     -0.682687577396      0.318734383156      2.231726446983
