35
OptimizedStructure
C      1.449006104228     -0.512203633824      0.115461366593
C      2.672372200155     -0.311344543689     -0.744099627543
O      2.611025992763     -0.556850388803     -1.929009805089
O      3.789432124215      0.131424618630     -0.100150940446
C      4.830388543280      0.256692263964     -1.013760173005
C      1.141331687715     -2.016939616581      0.317431841203
O     -0.163842618743     -2.302556848595     -0.193004585558
C     -0.535355870450     -1.241478668754     -1.092022995107
C     -2.059037408553     -1.144281460111     -1.280134070437
C     -2.842633166291     -1.336203243811      0.027106095645
C      0.175721523901      0.051519663296     -0.573483324208
C     -0.667263163902      0.915394946086      0.334319457336
C     -1.295112910081      2.044472488201     -0.169210064875
C     -2.087842473027      2.831280704977      0.639614217497
C     -2.266452130028      2.498467051300      1.965190191099
C     -1.652020763833      1.376682804629      2.478728133186
C     -0.860117001910      0.591001547317      1.667927429090
H      1.616231371577     -0.007077074270      1.075497085822
H      5.725200492592      0.606754493508     -0.495068191865
H      5.020033220026     -0.716763754101     -1.472030067912
H      4.541246982140      0.972919310896     -1.786329901591
H      1.853615767984     -2.634227515079     -0.241203761983
H      1.176563362766     -2.321449214512      1.369779839752
H     -0.066301990686     -1.519340579985     -2.052186913051
H     -2.297538742995     -0.180646754775     -1.747195586295
H     -2.377869042388     -1.900121724626     -2.009723091168
H     -3.538616823058     -0.517156088622      0.223082897732
H     -2.164389895211     -1.399651955024      0.878496833055
H     -3.421421347740     -2.262624169882      0.027952998219
H      0.492427224915      0.661659710972     -1.431707214273
H     -1.158186773328      2.303807301621     -1.204984808121
H     -2.567677692564      3.707127506380      0.234790226835
H     -2.885235074110      3.113197547348      2.598085294322
H     -1.792300592426      1.111718090879      3.513782598201
H     -0.395381116936     -0.293202814962      2.068058616940
