35
OptimizedStructure
C      1.459798988706     -0.163115164538      0.189648767821
C      2.676083851863     -0.033359381996     -0.699107580044
O      2.641167384783      0.705305702915     -1.659802043791
O      3.762975693344     -0.769914474849     -0.333005185126
C      4.799037908448     -0.545289176295     -1.233295761843
C      1.234032860077     -1.622222010687      0.659335612017
O     -0.050362129950     -2.067634647220      0.210672746549
C     -0.486986090259     -1.199022217268     -0.854312235482
C     -2.029736369924     -1.196731338426     -1.042212902031
C     -2.747133754378     -2.040219743538     -0.007750814599
C      0.151495163364      0.197958169525     -0.565192950463
C     -0.729586481578      1.118630791230      0.242073182141
C     -1.106963023168      2.356491941471     -0.254928540644
C     -1.912839323262      3.194875305458      0.486590751941
C     -2.350322609084      2.806783104212      1.735258484123
C     -1.979221147862      1.579521222390      2.241873197902
C     -1.173559172018      0.743311964989      1.498626701510
H      1.584855538904      0.509732103593      1.048193723976
H      5.670131654339     -1.132037847484     -0.934711326606
H      4.472305434531     -0.842143639478     -2.232570752537
H      5.046000210355      0.518924109729     -1.231864485069
H      1.987397783361     -2.289152790589      0.225932376962
H      1.275431454794     -1.727939716713      1.749404881901
H     -0.008778029202     -1.621307952195     -1.754555245938
H     -2.399464921894     -0.164868068118     -1.009448964940
H     -2.284056111804     -1.550221873047     -2.050155376555
H     -3.829056853964     -2.047729944341     -0.155295203419
H     -2.551442196991     -1.674777548476      1.000634794795
H     -2.396154550653     -3.072612954322     -0.041869410935
H      0.412900785677      0.692604363051     -1.511534272871
H     -0.760186849273      2.661347517095     -1.227297680293
H     -2.198841444746      4.155242477717      0.090199307485
H     -2.979257665922      3.462369081130      2.314901769193
H     -2.318006829311      1.273653209999      3.217995865773
H     -0.881659157302     -0.216450574923      1.887568569096
