35
OptimizedStructure
C      1.097879288000     -0.784736438591      0.435708819094
C      2.463713034288     -0.142793557782      0.454422812434
O      2.744516944716      0.605299179195      1.366507099241
O      3.281317841007     -0.441170095813     -0.595342214628
C      4.509673581681      0.221036582883     -0.479207496098
C      1.118285560159     -2.248235453336     -0.053813080604
O     -0.014161709264     -2.472636175935     -0.903775705816
C     -0.821996631245     -1.273614880979     -0.945388820338
C     -2.033262828440     -1.453240590518     -0.026535402889
C     -2.844933264119     -2.673817031372     -0.407520602656
C      0.119267190408     -0.087860635033     -0.543882908319
C     -0.566123316412      1.154808918505     -0.015907640274
C     -1.700961237182      1.650063337707     -0.640120188560
C     -2.318143989975      2.795968269819     -0.183716943974
C     -1.796686766126      3.478920241670      0.893860573494
C     -0.647363557486      3.022107445277      1.501508995876
C     -0.033698963197      1.876355147143      1.042399641706
H      0.679437804669     -0.738019283639      1.449226566966
H      5.309608047863     -0.520411535523     -0.433199105971
H      4.652792040104      0.859718733791     -1.352890721067
H      4.528595892953      0.832960735971      0.426114027006
H      2.017777554630     -2.439184849125     -0.649453898257
H      1.091426055670     -2.972965509788      0.767718712872
H     -1.158443218657     -1.162536445006     -1.987178271696
H     -1.670696646368     -1.548362321227      1.002857054813
H     -2.660230489521     -0.555313831096     -0.036777534437
H     -3.686591291533     -2.837894880402      0.268460916780
H     -2.223018385078     -3.570298445110     -0.390278436162
H     -3.244327385277     -2.581598943126     -1.418666421076
H      0.705372728941      0.210833136906     -1.424627865212
H     -2.094334205589      1.135653714308     -1.500029733166
H     -3.205677603781      3.160867154165     -0.674041273670
H     -2.277247048953      4.375239010315      1.250301647748
H     -0.220546716432      3.566647067767      2.327755251602
H      0.898781689545      1.558212227978      1.475512145236
