35
OptimizedStructure
C      1.132454955179     -1.043678532419      0.503432820161
C      2.501252969591     -0.705536473187     -0.030368249606
O      2.897634792131     -1.245277776953     -1.040046353788
O      3.192911389170      0.236048715598      0.673862279135
C      4.422850790801      0.456497868453      0.063197972252
C      0.846739954107     -2.552936348546      0.497033428481
O     -0.522501688150     -2.733877189757      0.164974405687
C     -0.910982435471     -1.652115890980     -0.707971044268
C     -2.438081852353     -1.521262410324     -0.735559082376
C     -2.957630993113     -0.898498534232     -2.024550644769
C     -0.000198319405     -0.396924560847     -0.358444047571
C     -0.537712046677      0.861645967130      0.323433146540
C     -1.836589126297      1.338658808405      0.214681641045
C     -2.227560754795      2.512758867805      0.826156138933
C     -1.320061393559      3.258837420323      1.543447886988
C     -0.014210599798      2.833983367668      1.627451012489
C      0.367972188089      1.660421121752      1.014296887552
H      1.053277653565     -0.677955215338      1.535083567114
H      4.977952572089      1.207422831913      0.629026112321
H      4.980938459720     -0.482406636593      0.040152383487
H      4.255737566215      0.805535298016     -0.958407352832
H      1.448856048921     -3.054415669277     -0.269732349657
H      1.046010851784     -3.033886330127      1.462294793851
H     -0.603043709431     -2.015119058361     -1.703420627399
H     -2.860072731057     -2.528463760332     -0.625986295286
H     -2.775171723675     -0.997658948122      0.164201050660
H     -4.032993793546     -0.714221034992     -1.986554555694
H     -2.769787743526     -1.552467650735     -2.877836527969
H     -2.463300797258      0.047275787963     -2.248981147247
H      0.460221046167     -0.052912836009     -1.295883544341
H     -2.558511634600      0.821623415843     -0.383084872517
H     -3.246112336411      2.853062557208      0.733882996396
H     -1.625428032016      4.175763735939      2.020371968685
H      0.711318572560      3.422390289769      2.164937521718
H      1.403821901047      1.367688803346      1.044908681827
