35
OptimizedStructure
C      1.505455361661     -0.380246023846      0.252608169822
C      2.567930762683     -0.254675083880     -0.810508928137
O      2.402924453373     -0.799509312040     -1.880124005828
O      3.669891070058      0.473021173717     -0.471944917840
C      4.559763329970      0.488721676395     -1.540532804156
C      1.463947057064     -1.806170981204      0.854412909029
O      0.147060780578     -2.338776178075      0.699234934110
C     -0.501421575131     -1.617952597516     -0.368034944431
C     -2.027642663731     -1.712196008570     -0.282101044105
C     -2.748018680242     -1.046491122685     -1.468988066755
C      0.083630239712     -0.169570110344     -0.336390365915
C     -0.731655541093      0.798600524940      0.484228382242
C     -1.246054360462      1.954324688269     -0.082619549185
C     -1.989218499079      2.836342213223      0.673566316051
C     -2.225754657111      2.574828562640      2.006548066329
C     -1.717764146276      1.429830420898      2.582335587231
C     -0.975588747725      0.549246900902      1.824362110725
H      1.698068652079      0.369174436983      1.031626035418
H      5.443717734901      1.067533836781     -1.265080431898
H      4.844727653799     -0.538260831853     -1.780718715352
H      4.069668540437      0.942484746701     -2.405008264019
H      2.151278401299     -2.470274980891      0.318612228678
H      1.726036450052     -1.828083041363      1.918588626486
H     -0.163637334401     -2.117357330333     -1.291035694196
H     -2.304524702784     -2.770568345212     -0.200705660707
H     -2.348534375441     -1.271536743386      0.667980187170
H     -3.419160672221     -0.246247895175     -1.148727830539
H     -3.346382872409     -1.758597366657     -2.041694752889
H     -2.034888531410     -0.602080366370     -2.165458812280
H      0.179242396867      0.217335936261     -1.360523534418
H     -1.058042889370      2.159984796926     -1.122325033994
H     -2.383684979490      3.731868568314      0.222288526156
H     -2.805698082661      3.264632924648      2.597458752298
H     -1.901194450833      1.222147344102      3.623665038548
H     -0.584475122659     -0.351484432302      2.265007486351
