35
OptimizedStructure
C      1.464742169261     -0.459979636969      0.761032495388
C      2.721294463257     -0.637457917194     -0.059863291590
O      3.573735137750     -1.414800843503      0.310628423461
O      2.807084712954      0.130572787092     -1.185434999335
C      4.011374322558     -0.101700172492     -1.861331085974
C      1.120060068445     -1.729519061742      1.580425129809
O     -0.181436993005     -2.191086484825      1.206847013369
C     -0.514755539081     -1.614958060851     -0.072514560828
C     -2.026273720431     -1.576319531408     -0.312679993564
C     -2.393535047615     -1.098567379712     -1.705722365866
C      0.213366059289     -0.234092796562     -0.131684739610
C     -0.620172583947      0.921264884639      0.364218380494
C     -0.807017713024      2.050302803171     -0.418133033530
C     -1.557632932121      3.109926319061      0.046438026865
C     -2.126455568217      3.056257300916      1.301348216559
C     -1.941167317318      1.942312389341      2.092183514520
C     -1.190717898494      0.884190541556      1.625441221652
H      1.603167216584      0.404392419569      1.423738270789
H      4.571268953228      0.833595092581     -1.920158337660
H      4.607359808355     -0.849094842402     -1.331404658227
H      3.790998927526     -0.460378930315     -2.868522160292
H      1.833183329377     -2.532710816152      1.361140513297
H      1.128444183663     -1.553059018170      2.662168967179
H     -0.057280910127     -2.289550958051     -0.814050883448
H     -2.433227325796     -2.578192616094     -0.131498219283
H     -2.489531135048     -0.940147932232      0.448033412071
H     -3.473769930967     -1.090276973085     -1.863661292918
H     -1.953957064487     -1.740222338016     -2.470855071257
H     -2.029243722508     -0.086568153051     -1.886762015278
H      0.538186869066     -0.025680550470     -1.160535278533
H     -0.353047979456      2.096358988618     -1.393047660717
H     -1.696529343665      3.982194343941     -0.570876747950
H     -2.712034641176      3.884804673201      1.664594626008
H     -2.381926985312      1.898211353736      3.074492896871
H     -1.044551869519      0.009981115875      2.236005287527
