35
OptimizedStructure
C      1.529381766809     -0.808911472243     -0.026420927128
C      2.594305049438     -0.838823092993     -1.098702462552
O      2.387979732265     -1.513101900403     -2.086742430682
O      3.744196305432     -0.046654564775     -0.877773810041
C      3.555434352584      1.326013984311     -1.164979118090
C      1.129512381174     -2.232615970040      0.430177517279
O     -0.287918095342     -2.373307184810      0.319349941985
C     -0.748468545215     -1.419398412246     -0.656070766789
C     -2.235634549969     -1.108745127846     -0.491813189277
C     -3.083237770296     -2.356870392638     -0.628038582519
C      0.208434326377     -0.188041363583     -0.558813782478
C     -0.300394193117      0.911381755268      0.339713142905
C     -0.519437022550      2.188318716236     -0.153169358081
C     -0.976849754757      3.191484188465      0.675431268751
C     -1.220605225251      2.930463257609      2.007224653928
C     -1.007010542750      1.664335385644      2.509151082174
C     -0.549905879537      0.662879770031      1.679098974218
H      1.899322997829     -0.219614923332      0.822588013500
H      2.796500852890      1.743362692352     -0.502619368362
H      4.500698614992      1.848112841111     -1.014953569024
H      3.240960687180      1.429875742839     -2.204206261200
H      1.583955285919     -2.984760095198     -0.225287385721
H      1.425165134042     -2.451173211391      1.462949309281
H     -0.592551149120     -1.918039705263     -1.626988347619
H     -2.392306454110     -0.655544161082      0.492452047619
H     -2.536320932142     -0.348574765404     -1.222686483365
H     -4.145007379931     -2.153722747292     -0.474628852221
H     -2.778449745908     -3.110307034814      0.100181967890
H     -2.970678438984     -2.804211732267     -1.616816740374
H      0.385397364288      0.222294502224     -1.562734098762
H     -0.327495376818      2.392172618611     -1.192526904386
H     -1.143090802278      4.180622966031      0.281468492740
H     -1.577590876964      3.714602799225      2.654553656336
H     -1.197998259732      1.456668952306      3.549129237835
H     -0.390293856447     -0.330172314644      2.062503132230
