35
OptimizedStructure
C      1.220555797581     -0.754341035447      0.174597128085
C      2.422695751359     -0.027031978759     -0.382149123093
O      2.404132562304      0.396356298287     -1.517924353758
O      3.482257306472      0.086546361530      0.467642429308
C      4.521441607388      0.752446470736     -0.173383738396
C      1.363261444804     -2.287512778168      0.049333509430
O      0.146938682041     -2.834388626276     -0.473016550463
C     -0.873912473574     -1.805892847406     -0.482413920934
C     -1.775169348449     -2.019771352042      0.757421767231
C     -3.262046957634     -1.997400195608      0.431557271903
C     -0.084311242694     -0.448002713726     -0.599460390096
C     -0.690898894372      0.907295430746     -0.262613197148
C     -0.017284027344      2.026300023819     -0.733490641836
C     -0.472204009888      3.303140766900     -0.486010139789
C     -1.619774188860      3.490142412133      0.251080718605
C     -2.299381597031      2.395715909647      0.738660708532
C     -1.837928273232      1.119602145435      0.486549390603
H      1.087785742231     -0.461932959322      1.224147883979
H      5.376323042345      0.821550511792      0.502359217174
H      4.798938374353      0.196258207362     -1.071863392661
H      4.184802321256      1.753055650386     -0.453651202171
H      2.164787181724     -2.542124511974     -0.652577592769
H      1.582542391343     -2.773105149163      1.006959561271
H     -1.464029742769     -1.977267584208     -1.395754980101
H     -1.516987584151     -2.996984090649      1.185498666703
H     -1.504977011249     -1.308018100502      1.544834506722
H     -3.879026520858     -2.078651283920      1.328524102529
H     -3.529892490066     -2.827290903055     -0.224550331702
H     -3.551875187221     -1.084523810483     -0.089616124870
H      0.219363401636     -0.371660385088     -1.656182284500
H      0.893743166970      1.879318041390     -1.288227810504
H      0.072202957518      4.152664089824     -0.864473726694
H     -1.980990872102      4.485976094384      0.449215503076
H     -3.195037367494      2.537418731519      1.321190351154
H     -2.386043942337      0.292113159907      0.887786785181
