35
OptimizedStructure
C      1.463289968022     -0.491334822899      0.525270570973
C      2.728789483814     -0.526703543271     -0.300414341826
O      3.503172471478     -1.450165862519     -0.174701727860
O      2.911925715998      0.531551704300     -1.143359360903
C      4.114774393830      0.408834121228     -1.849877176571
C      1.033349443402     -1.903876096313      0.996686704228
O     -0.287465032867     -2.177694017660      0.518739521485
C     -0.564169705484     -1.283572630452     -0.576124337078
C     -2.065139498236     -1.085285641045     -0.785418669249
C     -2.766171819901     -2.397167836372     -1.072045984206
C      0.248456645371      0.020530413253     -0.297431290026
C     -0.529855206038      1.076021194238      0.448067855877
C     -0.690812920956      2.346866738963     -0.081534045597
C     -1.395056813903      3.311096909729      0.608755504757
C     -1.945543638074      3.017310065948      1.838347876683
C     -1.790039249392      1.757825827403      2.376998621211
C     -1.085744529395      0.795520805274      1.685075368403
H      1.629072196956      0.171458085603      1.384689269640
H      4.749333907320      1.267339584669     -1.621828163722
H      4.631801973703     -0.510893903814     -1.564701556927
H      3.898801913214      0.387351287061     -2.919703500566
H      1.701706397626     -2.666445094768      0.580226304170
H      1.036773602366     -2.007726516430      2.087783781795
H     -0.145564297529     -1.786169932263     -1.462858122900
H     -2.487201512152     -0.624639522075      0.113590001514
H     -2.232220435743     -0.365968327811     -1.596068396840
H     -3.844913275776     -2.272507105113     -1.185983883017
H     -2.595862395927     -3.109344371612     -0.262966486346
H     -2.387056346731     -2.855676154684     -1.986640191175
H      0.609592659652      0.445664656181     -1.244247754024
H     -0.254363925110      2.577720207656     -1.038006041235
H     -1.512713759050      4.295978634427      0.187571953003
H     -2.494936568564      3.771172296265      2.377980079442
H     -2.218712474756      1.524936821255      3.337806466951
H     -0.967297367169     -0.192007974351      2.096321149937
