35
OptimizedStructure
C      1.700338624861     -0.389396053077      0.541351753622
C      3.121691021939     -0.469226515792     -0.029420023794
O      3.904680522454     -0.936707828077      0.777756023415
O      3.582401415436     -0.111416351264     -1.286127086475
C      2.737336147456      0.595324736177     -2.157044422472
C      1.263313007014     -1.818631029098      0.969122897174
O      0.002602931763     -2.140716079227      0.372536642918
C     -0.247113943167     -1.202048988702     -0.688449375393
C     -1.738123549087     -1.069180138979     -0.998203732858
C     -2.344127974932     -2.399242355805     -1.396317097032
C      0.469323472051      0.121303803745     -0.276634434889
C     -0.400785447701      1.022654586896      0.568471620679
C     -0.591155155602      2.351737486579      0.222479141955
C     -1.369060363962      3.177858304219      1.006505526335
C     -1.964886399279      2.686979025155      2.148841146040
C     -1.781325315215      1.368273681258      2.505855212400
C     -1.003558162944      0.544658769428      1.720168654691
H      1.779310812733      0.245128498495      1.435112747012
H      1.922508350622     -0.047836691380     -2.489650224837
H      2.391743112201      1.511606885681     -1.677074029861
H      3.326126875449      0.873114284706     -3.032180409489
H      1.991857131168     -2.561454107330      0.624133119999
H      1.169404952691     -1.925947386974      2.056044054501
H      0.260028402291     -1.630179756168     -1.567822658779
H     -2.248470984139     -0.676089342601     -0.113055530268
H     -1.885790659348     -0.319512820269     -1.784761171147
H     -3.417260688258     -2.324645242629     -1.583370313286
H     -2.192680766137     -3.141453345048     -0.610765770212
H     -1.876375275119     -2.791259584521     -2.300728564286
H      0.750117712620      0.683059671099     -1.167513846577
H     -0.121396475836      2.737994031238     -0.665627241273
H     -1.508785904814      4.209252516069      0.727266690236
H     -2.571415159318      3.333069567836      2.762079793392
H     -2.245082124482      0.980939520871      3.398096768974
H     -0.865390143407     -0.488011752511      1.988924139585
