35
OptimizedStructure
C      1.527082716340     -0.012136610421      0.754473111713
C      2.788402565158     -0.108865327045     -0.068741325091
O      3.793845489141      0.439774736640      0.327152447607
O      2.701891975870     -0.847837082246     -1.212749499749
C      3.933739628294     -0.889413143994     -1.877800573442
C      1.372152663176     -1.228029396093      1.700996446653
O      0.147459228520     -1.902191330538      1.398232654909
C     -0.271013607956     -1.504319232365      0.076358420006
C     -1.772247891598     -1.708653363997     -0.141694918444
C     -2.207596888363     -1.426701577271     -1.568083495954
C      0.247369137688     -0.044632104979     -0.124704572487
C     -0.740966883663      1.018244569652      0.287447293600
C     -1.110053066603      2.025861406994     -0.590203815352
C     -2.003830972234      3.002047016054     -0.202429517340
C     -2.536578436623      2.985672449628      1.069222174416
C     -2.172748170020      1.992408294667      1.953296091071
C     -1.279491741789      1.017447578073      1.563215711366
H      1.559126484902      0.925926557098      1.324533351310
H      4.257015534323     -1.928816530475     -1.960764581886
H      3.814309746999     -0.462403656136     -2.875322245275
H      4.684213579495     -0.318441700309     -1.325124152363
H      2.189600646643     -1.941990576727      1.552397711118
H      1.357740279577     -0.943194973593      2.759421660672
H      0.280520125742     -2.171812880568     -0.605726063280
H     -2.028471564496     -2.736520796050      0.141151916492
H     -2.321385407832     -1.075056733241      0.561976263031
H     -3.277604001206     -1.591217780763     -1.709270452881
H     -1.679635908335     -2.068454854555     -2.275047189380
H     -1.995653551472     -0.394802054051     -1.850678323494
H      0.528335215171      0.111332909580     -1.175474075175
H     -0.687429294643      2.043542962579     -1.580023663976
H     -2.283469298245      3.780314245860     -0.893322417619
H     -3.233921969757      3.749318857532      1.372373929308
H     -2.585628707336      1.977629004626      2.948515299466
H     -0.995077654868      0.235971116434      2.246396400448
