35
OptimizedStructure
C      1.468287747617     -0.247201542931      0.578376736678
C      2.553557095436      0.252502239659     -0.344707910920
O      2.843736743396      1.430061359995     -0.322302802255
O      3.114369121910     -0.670392584323     -1.174758343150
C      4.077041684319     -0.054274591190     -1.967743769811
C      1.713880612134     -1.676333666279      1.083887662028
O      0.451903538799     -2.318256149842      1.196186308285
C     -0.424534584535     -1.761489423996      0.192169714642
C     -1.886374392586     -2.025936923526      0.577236495555
C     -2.808070132665     -2.142196306467     -0.629858009062
C      0.070299418037     -0.282279169078     -0.120931163659
C     -0.744542534565      0.960308888142      0.240693834925
C     -0.062010237564      2.162701894631      0.394688844558
C     -0.714696595988      3.341222695950      0.684747686099
C     -2.085403514002      3.355378343450      0.802058833866
C     -2.791550114127      2.190521603020      0.603688225604
C     -2.129549731913      1.014616605766      0.313103260852
H      1.413921520888      0.422789654532      1.445956829949
H      4.529914284780     -0.796840939388     -2.627846485886
H      3.601358394640      0.731490975611     -2.559049174010
H      4.839772035342      0.387075507657     -1.322001336088
H      2.319052324705     -2.243092102647      0.367339453370
H      2.216068040805     -1.707077653048      2.058311019409
H     -0.209443994905     -2.378985144444     -0.696137950462
H     -1.915051749682     -2.965915565418      1.143144037510
H     -2.215465303917     -1.274840960680      1.301897121875
H     -3.857456739327     -2.218465456942     -0.338657506925
H     -2.569327117982     -3.028861501227     -1.219712264203
H     -2.708163435596     -1.290615359548     -1.303677858836
H      0.246341501674     -0.215249676789     -1.204053712630
H      1.003991598949      2.177484457594      0.242787984756
H     -0.152344650314      4.252250447535      0.808590515129
H     -2.602441290976      4.273502253936      1.028276710013
H     -3.867578716615      2.199877712427      0.665640308755
H     -2.719490826171      0.146520077861      0.102656704040
