35
OptimizedStructure
C      1.265572821358     -0.902425207388      0.046819374013
C      2.659102222824     -0.596552790175     -0.454510452178
O      3.520781832629     -1.441439516118     -0.340222049370
O      2.862422493142      0.638291541949     -0.994779962055
C      4.187802293834      0.752204266673     -1.400706616824
C      0.818620429743     -2.314984575712     -0.385845600241
O     -0.127387123628     -2.198746652728     -1.447523609102
C     -0.757932592378     -0.902326282694     -1.381252260405
C     -2.205162902030     -1.019709289287     -0.878173910380
C     -2.348503049535     -1.929028026368      0.324181727510
C      0.190728061455      0.046477725662     -0.561824336848
C     -0.509824258078      0.973991681333      0.407995369426
C     -1.019913559250      2.172465426233     -0.068759894202
C     -1.691012352982      3.041906185117      0.764779188471
C     -1.866939183925      2.724339615293      2.093763292616
C     -1.370663953959      1.535909481889      2.583517755645
C     -0.699362318636      0.667841192586      1.747645190970
H      1.287900070448     -0.821718288901      1.139295513343
H      4.349532878791      1.741773213649     -1.832953710672
H      4.837560270241      0.610721396713     -0.533832092152
H      4.398290591834     -0.020705559535     -2.143725153132
H      1.672824795783     -2.889246802263     -0.764542803531
H      0.360779579464     -2.884204760436      0.430513339479
H     -0.778751874554     -0.545309190611     -2.424741310720
H     -2.599957400231     -0.020645099577     -0.659801219886
H     -2.830277311993     -1.408808785176     -1.691890188531
H     -3.383061178040     -1.996036974566      0.667281692543
H     -1.747814255505     -1.583615627994      1.163807052773
H     -2.015251590745     -2.940137851420      0.085695794905
H      0.726835394563      0.689995947497     -1.275730239444
H     -0.886921324653      2.420466543282     -1.107968044972
H     -2.077635716476      3.969842130422      0.376541746735
H     -2.390260676912      3.402665302538      2.747518280146
H     -1.507393922828      1.284051187741      3.622400453361
H     -0.324727189774     -0.257301557626      2.147027682709
