35
OptimizedStructure
C      1.422716871205     -0.130939418697     -0.323590217060
C      2.398966002442      0.253293192460     -1.417513349380
O      2.235922373603      1.315885890150     -1.982968186846
O      3.455830800018     -0.647026053281     -1.681953702125
C      4.513669260620     -0.577287094299     -0.744827410803
C      1.227981256501     -1.664987659273     -0.219593771711
O     -0.157197862325     -1.975970171690     -0.402546436933
C     -0.783130362207     -0.861323865737     -1.065974699911
C     -2.291716800762     -0.824715405851     -0.823610278586
C     -2.965804657655     -2.089329476478     -1.314648274114
C     -0.002647863792      0.413629040134     -0.615328786140
C     -0.597388716083      1.102304717208      0.587642742022
C     -0.955122644908      2.440464246653      0.535071807249
C     -1.486807754372      3.068875582619      1.641665585190
C     -1.664997559332      2.367735788368      2.815520146815
C     -1.309236043905      1.037405342376      2.881568334115
C     -0.777812578419      0.411317090594      1.774127094825
H      1.781891327732      0.284814974467      0.626748223807
H      5.305251895157     -1.258131781253     -1.058663214143
H      4.897301375993      0.443532867362     -0.721147961159
H      4.154201152906     -0.863203847446      0.243907015578
H      1.787897263508     -2.180519707127     -1.007813187921
H      1.549174110890     -2.069857558756      0.746852563247
H     -0.600247926300     -1.034129365120     -2.138916189830
H     -2.472577161354     -0.696749779339      0.248486824627
H     -2.720843127874      0.061257924103     -1.306731012063
H     -4.038882720259     -2.090144967271     -1.112942313603
H     -2.534459814434     -2.967807218505     -0.831909429347
H     -2.830579182556     -2.216567917259     -2.389811592880
H      0.055043155338      1.131268524169     -1.446262312209
H     -0.806571847300      2.989506242180     -0.378841326316
H     -1.760161280761      4.109925475323      1.589327415176
H     -2.079656165234      2.859243382272      3.680290328607
H     -1.446405768847      0.486819744657      3.797642136723
H     -0.503599007234     -0.628588737712      1.816743435097
