35
OptimizedStructure
C      1.428497952063     -0.325488961251      0.255166194237
C      2.592640650378     -0.318870206050     -0.702978788780
O      2.483926058861     -0.888009106518     -1.766507658469
O      3.710305896617      0.340107894386     -0.277804448741
C      4.727427985633      0.274420889043     -1.237518985984
C      1.158986557689     -1.743172081431      0.817393097713
O     -0.190230421045     -2.113058597065      0.521928647133
C     -0.639648428259     -1.303242508836     -0.581055235718
C     -2.163957973804     -1.215970850185     -0.643556857419
C     -2.794909645525     -2.585193973163     -0.790842777907
C      0.103864191449      0.064342567523     -0.456342323887
C     -0.667666435261      1.106938023004      0.314097945642
C     -0.995992909437      2.322348858018     -0.265931513908
C     -1.696745978994      3.273358919664      0.445974265456
C     -2.077370934368      3.021354943065      1.747071853661
C     -1.756474883042      1.816478453300      2.335201448376
C     -1.056135288954      0.867212381718      1.621582518894
H      1.636655521033      0.385686050223      1.065424786132
H      5.597105593030     -0.219273487437     -0.799699270513
H      4.391151349960     -0.289163519158     -2.111461816031
H      4.996256186918      1.288246201477     -1.540200607157
H      1.813100881012     -2.478357285207      0.335530007897
H      1.309679006504     -1.808279729434      1.901181261327
H     -0.273620250382     -1.828130060085     -1.478871569532
H     -2.525294477415     -0.733515055884      0.270444098851
H     -2.461521525686     -0.556378418272     -1.467483493272
H     -3.885746864673     -2.538351362654     -0.799250038118
H     -2.494840143420     -3.237702301920      0.030731278181
H     -2.476678441836     -3.068738749827     -1.715710481203
H      0.337095324017      0.453878622308     -1.457153811381
H     -0.695559367062      2.520145224376     -1.280448281872
H     -1.945371322210      4.215164417502     -0.014920430764
H     -2.624153673484      3.764949696194      2.303344297861
H     -2.053358257276      1.615799957166      3.351437678576
H     -0.811415933029     -0.079536844593      2.071229010719
