35
OptimizedStructure
C      1.620781156648     -0.264904567298      0.528922501633
C      2.961951985176      0.249052884321      0.045723559107
O      3.877180890904      0.257231705578      0.844472578580
O      3.066572472936      0.663528288161     -1.299387833536
C      3.077671464622     -0.396920373000     -2.236872862922
C      1.451726206377     -1.773208452246      0.261701901265
O      0.615055377207     -1.933717158386     -0.882005434248
C     -0.265253396790     -0.791806900559     -0.973676062001
C     -1.661214103959     -1.159480410537     -0.472025329943
C     -2.253173444048     -2.309143143854     -1.260892904943
C      0.426168253366      0.398098135350     -0.215051321189
C     -0.491936184137      1.198475723608      0.680171385919
C     -0.997958337499      2.411822359016      0.239356908351
C     -1.855056840727      3.148967061857      1.029048291865
C     -2.223430904313      2.680192656751      2.271631465816
C     -1.734460945454      1.472310830179      2.720437321018
C     -0.877185710042      0.736639592078      1.929287175025
H      1.562674256812     -0.052211342162      1.604067552979
H      3.217463253096      0.019590744710     -3.234556976770
H      3.905412683987     -1.067032919471     -2.001683882085
H      2.134831361130     -0.941491602107     -2.195855011783
H      2.415286904366     -2.252790427781      0.056687223575
H      0.981017821238     -2.298335246816      1.100710654890
H     -0.332382502852     -0.554868024940     -2.047078483086
H     -1.588767545800     -1.431366138126      0.586064934088
H     -2.315408826659     -0.280451931455     -0.513902745749
H     -3.233882982057     -2.606484625607     -0.884051301927
H     -1.600187446820     -3.182396293684     -1.217881853381
H     -2.368187044612     -2.047473608649     -2.313849843699
H      0.854312110847      1.089190369447     -0.955448913152
H     -0.712694381997      2.778044012919     -0.731924788774
H     -2.235881763613      4.092718771061      0.674658139513
H     -2.891701953912      3.256333476564      2.890390699465
H     -2.022074781921      1.102187144455      3.690792261195
H     -0.507267101500     -0.210300589378      2.282020994905
