35
OptimizedStructure
C      1.143916256348     -1.055181571660     -0.113280256769
C      2.449928974520     -0.305487415277     -0.177704739589
O      3.058616524345     -0.255039314579     -1.223740951860
O      2.842519177972      0.295346185213      0.982601006428
C      4.049114883448      0.954743455400      0.773556630667
C      1.222141476085     -2.455374784842     -0.759181629313
O      0.033784004675     -2.682911300197     -1.528809745642
C     -0.887320853776     -1.581743172119     -1.321354207442
C     -1.977166721178     -2.073977847068     -0.312781990644
C     -2.256830702173     -1.223895865558      0.914879184725
C      0.022005409246     -0.364131268511     -0.925078421524
C     -0.641371414530      0.843788054778     -0.302775846346
C     -1.793100190821      1.369892692815     -0.868088984313
C     -2.393880579148      2.491197043582     -0.335361113152
C     -1.839600038240      3.115990304059      0.761100627047
C     -0.675420599987      2.626061750074      1.312591248226
C     -0.076670542716      1.505628779318      0.777325495615
H      0.837827305083     -1.139495006889      0.936520937960
H      4.365069332617      1.433919746023      1.702395339400
H      4.799567916781      0.228228494258      0.453310832590
H      3.913445316521      1.705901249208     -0.008044002359
H      2.071895587154     -2.506191199378     -1.449668842645
H      1.327136057909     -3.260824948984     -0.023610897359
H     -1.346930600875     -1.382181872939     -2.302276234152
H     -2.914140527964     -2.262826550579     -0.852296090046
H     -1.655735080802     -3.069811679415      0.019170393833
H     -2.951830365014     -1.715789113170      1.598728199226
H     -2.703455367815     -0.266558084155      0.648241349080
H     -1.345762226798     -1.018433121468      1.476803537129
H      0.506354024922     -0.001512063404     -1.845257232399
H     -2.219410913971      0.889584656070     -1.731940609521
H     -3.295119307808      2.881100437865     -0.779164233283
H     -2.307524408250      3.992974470996      1.177386943807
H     -0.225737148603      3.125729962008      2.154861405178
H      0.863685342840      1.161278898527      1.170942897441
