35
OptimizedStructure
C      1.676924065356     -0.240048556175      0.441292630072
C      2.955060533349      0.375855812601     -0.096220523976
O      3.850240709280      0.552010028559      0.706578037913
O      3.040101107540      0.728267950485     -1.455535000304
C      2.922111909342     -0.342807988312     -2.373191064967
C      1.596618535283     -1.773655254058      0.293305400885
O      0.264083718361     -2.122711893551     -0.088518981041
C     -0.327604486851     -0.998980556291     -0.773181807574
C     -1.850597208593     -1.008839505062     -0.637396550094
C     -2.454426196110     -2.271200454960     -1.217836563206
C      0.385351598038      0.294468925605     -0.243170766680
C     -0.455382843494      1.122548837486      0.698666044565
C     -0.851319532201      2.404072084860      0.348206343187
C     -1.618563687245      3.162952484763      1.206894967426
C     -2.000903286951      2.649973244337      2.428039825721
C     -1.614777430062      1.376745183320      2.788540173563
C     -0.847542344265      0.619541013582      1.928747846821
H      1.632117261497      0.020068589307      1.507242953031
H      3.097612829849      0.043639276028     -3.377409274939
H      3.677210624086     -1.094918653232     -2.142028737124
H      1.928311360445     -0.781496824792     -2.326919557069
H      2.280667818883     -2.140194638319     -0.477354136032
H      1.836661360861     -2.298434438019      1.225573309246
H     -0.081029479415     -1.148313015362     -1.835082524722
H     -2.108408702876     -0.927428072289      0.423230617109
H     -2.270244661972     -0.116958598582     -1.117999958633
H     -3.538283400335     -2.306476437584     -1.090526538488
H     -2.032915010882     -3.155607225654     -0.737186875904
H     -2.243410563364     -2.355636831558     -2.284967728283
H      0.678449164064      0.927992942749     -1.091655238952
H     -0.548354255816      2.807170171303     -0.602818975065
H     -1.916458025950      4.159251452759      0.924174816585
H     -2.598499778437      3.243744262356      3.100122506313
H     -1.911384880154      0.973135587713      3.742663974122
H     -0.551416821264     -0.377728904015      2.205721356491
