35
OptimizedStructure
C      1.553244217131      0.100170425886      0.619959333724
C      2.760382848774     -0.023669026637     -0.278103970867
O      3.800504031887      0.504290776994      0.052584808310
O      2.593693728798     -0.760624886925     -1.412149136742
C      3.792814649117     -0.802105150807     -2.116412723038
C      1.425062154793     -1.116410731786      1.570063270079
O      0.176604771682     -1.770983887494      1.325922203204
C     -0.305811236859     -1.351185666287      0.032911977017
C     -1.837510836990     -1.539511189729     -0.113888371609
C     -2.208707312879     -2.472232826453     -1.252818562941
C      0.223400534415      0.102693248384     -0.180969028982
C     -0.719608336860      1.171995981157      0.311600099711
C     -1.057923070600      2.249279069830     -0.492320575023
C     -1.906137652140      3.232470618926     -0.027287843293
C     -2.423551555331      3.152571417627      1.248400027278
C     -2.090386412678      2.088528460729      2.059281161432
C     -1.242382751661      1.107100764357      1.592195762428
H      1.642147670822      1.034414812339      1.190308432751
H      4.559761911438     -1.255821173079     -1.484348221301
H      3.658527360221     -1.393438945036     -3.024397575606
H      4.089616446870      0.217324898289     -2.373625584424
H      2.223404498470     -1.842338586297      1.381236789782
H      1.465540638027     -0.833985285063      2.628448474344
H      0.206969895420     -2.020551104448     -0.677739013671
H     -2.226789212712     -1.925039026063      0.836171401484
H     -2.321023585993     -0.565301995784     -0.250046027449
H     -3.289151663367     -2.601939623469     -1.341128161833
H     -1.769612124750     -3.460837914922     -1.110002816152
H     -1.843576835215     -2.091277246333     -2.207920606667
H      0.438515127418      0.270250680567     -1.245360124350
H     -0.647721010992      2.314788738936     -1.485331611218
H     -2.162270870848      4.065613005594     -0.660929611894
H     -3.085302462807      3.921609678320      1.611731658116
H     -2.491544200059      2.023725273582      3.057283622445
H     -0.981179352543      0.270426415097      2.216680544954
