35
OptimizedStructure
C      1.650354828257      0.128917558101      0.639039893426
C      2.969844822918      0.407806736318     -0.054037591788
O      3.303720487915      1.574226428442     -0.121950420957
O      3.729499430044     -0.658131452264     -0.575156804383
C      3.131988132480     -1.370779040244     -1.645265006715
C      1.482077164637     -1.325520793394      1.140681215378
O      0.289648849476     -1.881080371423      0.571591040205
C     -0.125086951885     -1.066801909025     -0.545313420009
C     -1.635130894717     -1.151425864913     -0.769216361006
C     -2.078903967860     -2.573085482064     -1.046332647192
C      0.428055976353      0.372009799321     -0.286092163714
C     -0.572520305135      1.308722285597      0.345661409154
C     -0.934923973278      2.489115613020     -0.284352701241
C     -1.840826523857      3.348507079511      0.301172113367
C     -2.394937100621      3.039380893269      1.525247257925
C     -2.040606099352      1.869938480476      2.163444808318
C     -1.134537404966      1.012393871248      1.576442049257
H      1.586528811792      0.824478859917      1.487254133077
H      3.925464066855     -1.845013843075     -2.223470119953
H      2.463965639541     -2.141264239932     -1.263003140795
H      2.587865344335     -0.677997652376     -2.287812427634
H      2.331091126086     -1.951657893847      0.850456208030
H      1.391349072652     -1.382787271131      2.231556153465
H      0.376055391022     -1.499274284707     -1.423757209517
H     -2.144486857397     -0.769085130808      0.121072722595
H     -1.924502777983     -0.483426630616     -1.589330727155
H     -3.160963433564     -2.650954637227     -1.169934282271
H     -1.788025575676     -3.233529495620     -0.227765882052
H     -1.613079913810     -2.962679514839     -1.952788010523
H      0.777372267832      0.814804695306     -1.229080398250
H     -0.494415789158      2.735307227687     -1.235160952075
H     -2.112213788556      4.264789566325     -0.196873386878
H     -3.101208069408      3.712033601779      1.983602885296
H     -2.470376938685      1.626242973940      3.121095935241
H     -0.858135046286      0.095819837248      2.068375829377
