35
OptimizedStructure
C      1.439413685903     -0.419578213917      0.137278408710
C      2.648813423022     -0.304010872553     -0.756310977472
O      2.583248351164     -0.709855573081     -1.896062320873
O      3.757685085090      0.255316359951     -0.193942757629
C      4.785760336247      0.284990836050     -1.130022378629
C      1.130307699468     -1.894490001308      0.492441214603
O     -0.202066400231     -2.204336266677      0.076775150975
C     -0.587828006676     -1.249192100873     -0.931839740070
C     -2.128005814060     -1.127370478322     -1.097737370302
C     -2.891879352797     -1.983653692313     -0.108149605328
C      0.154419003326      0.080197066621     -0.577031347893
C     -0.650563313565      1.012346416974      0.294105097213
C     -0.962549472060      2.293709196692     -0.133062133579
C     -1.701515160403      3.139973564134      0.666965616624
C     -2.137362595927      2.715956669017      1.904480045594
C     -1.832613176257      1.444301001510      2.340980104641
C     -1.093935106372      0.600217126206      1.539357896527
H      1.614840958580      0.174935791174      1.043606309680
H      5.673964451196      0.729314621773     -0.676242172485
H      5.001652504615     -0.735994798342     -1.453314295516
H      4.467375019470      0.879547811764     -1.989402496605
H      1.806251447367     -2.569231720829     -0.044526192207
H      1.218933475848     -2.102814725590      1.564941827458
H     -0.146997537981     -1.655249118986     -1.859092996611
H     -2.423995577480     -0.076637961094     -0.993810263022
H     -2.416192802889     -1.396575210684     -2.122438439265
H     -3.973199764011     -1.905853614916     -0.238768001095
H     -2.658962924103     -1.698403262945      0.918136054857
H     -2.615205243358     -3.033693703962     -0.213380425858
H      0.439544120738      0.604469243324     -1.499867986627
H     -0.620376870978      2.625171235567     -1.098303518734
H     -1.937235998050      4.134223184720      0.324716957710
H     -2.714053558107      3.377650871335      2.529722114811
H     -2.171368190111      1.109689183039      3.307636019786
H     -0.856302696619     -0.395068863459      1.872162600612
