35
OptimizedStructure
C      1.332690661874     -0.844324859747      0.103611145976
C      2.663310739409     -0.402086256612     -0.460182016241
O      3.617150260192     -1.142501876797     -0.359922948080
O      2.698959815217      0.834004521790     -1.038991677661
C      3.982261885572      1.129632429610     -1.514821759130
C      1.030901842480     -2.322094322927     -0.244991852298
O     -0.109383205500     -2.380807126874     -1.102918822395
C     -0.871145464939     -1.166438762415     -0.946558525143
C     -2.044126287622     -1.397097928882      0.005321328309
C     -2.958869638544     -2.496865294258     -0.492856833054
C      0.137832429389     -0.054854819213     -0.502625909659
C     -0.437976404148      1.018174229833      0.393683140768
C     -0.789839137552      2.245191638534     -0.148185920687
C     -1.334724886563      3.237139209448      0.639580335914
C     -1.540739393892      3.015034574266      1.983924659759
C     -1.201914377105      1.798766467720      2.536294458046
C     -0.656536956252      0.808118505394      1.746673226334
H      1.367673327516     -0.706195855579      1.190618091235
H      4.347378013633      2.029114227602     -1.015483638501
H      4.663713441764      0.299283464036     -1.312824298417
H      3.930570804587      1.303449493347     -2.591316694613
H      1.875504038166     -2.771135651087     -0.780801080223
H      0.824811014484     -2.933117047156      0.641175318984
H     -1.267528659384     -0.930416578818     -1.946539032821
H     -1.643471824231     -1.661805027993      0.989376821066
H     -2.599912405515     -0.462359719326      0.145586114437
H     -3.777779776542     -2.698438475912      0.200671088120
H     -2.403634048417     -3.425775078372     -0.633023670922
H     -3.397679794546     -2.238268520229     -1.457738493987
H      0.523138259665      0.439294693586     -1.406413686771
H     -0.629261411454      2.420383821171     -1.198133176494
H     -1.598296916315      4.186799926294      0.203751215489
H     -1.965309007767      3.789755519650      2.601117646516
H     -1.363402071495      1.621313103338      3.586892840003
H     -0.404364866163     -0.140872623424      2.186052606142
