35
OptimizedStructure
C      1.257712635487     -0.318959319839     -0.353905586188
C      2.516281078814      0.507867812353     -0.533680640469
O      2.487520202868      1.672814147821     -0.192487155026
O      3.655879578643     -0.142703796146     -1.057206791150
C      4.298261948436     -1.008960954119     -0.140202262365
C      1.223545171106     -1.557038875631     -1.281335691163
O     -0.065778339467     -1.656339967257     -1.896090282722
C     -0.947163947058     -0.683210534413     -1.297432594565
C     -1.814242507383     -1.373054657242     -0.240726288390
C     -2.592752400229     -2.531178645683     -0.829331770772
C     -0.033270874435      0.457336635885     -0.735505650972
C     -0.657569551459      1.303690270028      0.355091634095
C     -1.957840804763      1.766124249690      0.216692999172
C     -2.538182330454      2.556732171418      1.186354648282
C     -1.818520848298      2.917157500709      2.304843106338
C     -0.512842236776      2.498378840465      2.440858070407
C      0.063226695332      1.707189451774      1.469268347520
H      1.186710764380     -0.633071225404      0.694639793535
H      5.166977107531     -1.451894459216     -0.627806799480
H      4.622225773244     -0.428950289386      0.724747061096
H      3.615200930422     -1.796721247469      0.176893806215
H      1.960932736644     -1.454332987101     -2.085291672538
H      1.426617299573     -2.493661492413     -0.750243995417
H     -1.583982006032     -0.301634194610     -2.109854700212
H     -1.158048751274     -1.728570799458      0.561283578369
H     -2.492157984435     -0.652889348304      0.229838378682
H     -3.180730750996     -3.059336542552     -0.075958058979
H     -1.917940839220     -3.252715791996     -1.292769603971
H     -3.278360776642     -2.190443307423     -1.606680938987
H      0.236985231500      1.135626563325     -1.557416896292
H     -2.514131349134      1.510534256342     -0.668769956130
H     -3.552922896536      2.898824775544      1.065632414701
H     -2.269241880581      3.538036658365      3.061643699828
H      0.064129515855      2.802268307317      3.298846725212
H      1.103474405340      1.443086794626      1.546063072337
