35
OptimizedStructure
C      1.693181027688      0.304238959138      0.551164180986
C      2.892053072462      0.575423340397     -0.337029021487
O      3.029862694960      1.723191512072     -0.711718629086
O      3.768544654925     -0.471468712432     -0.681562608803
C      3.204253961248     -1.517931627832     -1.453721727630
C      1.794737953052     -0.984213809321      1.402248359662
O      0.667166902682     -1.821060991113      1.117260207306
C      0.047656841576     -1.379530227393     -0.111057715889
C     -1.439730748858     -1.741659221299     -0.159485871468
C     -2.084104583926     -1.428822082785     -1.497766731462
C      0.376705752170      0.142563155612     -0.254385065019
C     -0.700496589417      1.060924274451      0.268988318654
C     -1.236485949977      2.056136797160     -0.533638507849
C     -2.206028537701      2.906508710266     -0.044994755014
C     -2.647981161079      2.776555591949      1.254530675134
C     -2.115783523444      1.797346177883      2.065933416023
C     -1.146516523273      0.948477197516      1.575361651357
H      1.588271359207      1.176357232746      1.211553411813
H      4.009878960113     -2.009378620186     -1.999918680427
H      2.718360067308     -2.248426545127     -0.808516126709
H      2.491685733322     -1.103279586193     -2.167268765680
H      2.709304334982     -1.542414367453      1.180831763643
H      1.792429530467     -0.774639705264      2.478219729363
H      0.557145497345     -1.936000725271     -0.911309698286
H     -1.545421199032     -2.807463455088      0.075592753819
H     -1.959424374567     -1.221288486855      0.650854168252
H     -3.140241339182     -1.704654869959     -1.517431413251
H     -1.588956593746     -1.965225296741     -2.308617823451
H     -2.020187651742     -0.365186445879     -1.730165995710
H      0.569290433870      0.387783399168     -1.307944068929
H     -0.879866880901      2.167780780919     -1.543156990398
H     -2.614209406605      3.677066979336     -0.678156743591
H     -3.404026823224      3.442575539684      1.636869078254
H     -2.455110764525      1.696473966210      3.083707984554
H     -0.725956126176      0.183241161687      2.204731241316
