35
OptimizedStructure
C      0.747200149318     -1.154953296199     -0.153929332582
C      2.198841177653     -0.822768487546      0.104076755516
O      2.809203891318     -1.472630981022      0.925727371396
O      2.739645202910      0.189080110051     -0.632383527398
C      4.086309714030      0.328433388278     -0.309803558525
C      0.602853897759     -2.284119239701     -1.194663879019
O     -0.434552416766     -1.945498133515     -2.122774697393
C     -1.092808918099     -0.724206166177     -1.706004497574
C     -2.485769547941     -1.092033069285     -1.176543126077
C     -2.458463723477     -1.878334391110      0.119172934275
C     -0.061153258449      0.015746100041     -0.767430780848
C     -0.454814742143      1.077357095003      0.253176895603
C     -1.740636133383      1.349504145233      0.695382198197
C     -1.980923245201      2.332789349280      1.633778842355
C     -0.938903024805      3.067878358415      2.153941154264
C      0.346325403716      2.813888977870      1.731878197901
C      0.577947016482      1.830755594988      0.794820233367
H      0.290305371321     -1.445019585609      0.800135792087
H      4.515786160249      1.143866162067     -0.895230718921
H      4.178576156848      0.543982969139      0.757138891873
H      4.602992840103     -0.606872613647     -0.537042874697
H      1.529608744203     -2.395613473311     -1.767872008095
H      0.370707808086     -3.254444800268     -0.741612075571
H     -1.212641422861     -0.132694384442     -2.628210775090
H     -3.119309853837     -0.202859471398     -1.100210536892
H     -2.975239235157     -1.701394970618     -1.947225004375
H     -3.461857857738     -2.150165486018      0.453359190766
H     -1.989945132695     -1.313920334706      0.925537110466
H     -1.892422827082     -2.803170942910      0.002442072931
H      0.641175612262      0.525483686380     -1.446589842197
H     -2.575115268463      0.796007553036      0.318197656756
H     -2.988930372101      2.526184898020      1.962675770352
H     -1.127874326603      3.834540990972      2.887393199300
H      1.169923576102      3.379726463770      2.135404532373
H      1.583958584442      1.625473984937      0.473288435475
