35
OptimizedStructure
C      1.315594030055     -0.955896588737      0.096683023722
C      2.568599284156     -0.118276297427      0.032775418680
O      2.909514291877      0.506421763537      1.014686066131
O      3.222874394147     -0.105703893894     -1.161396560166
C      4.336762727224      0.722338816524     -1.069074927087
C      1.424535506409     -2.299168640782     -0.653041207019
O      0.173529766227     -2.572696410687     -1.299263469979
C     -0.759449883867     -1.495512355163     -1.026026424921
C     -1.784571300245     -1.972417922433      0.015766066044
C     -3.059917184903     -1.149705980523      0.076870458035
C      0.112347666439     -0.268846653712     -0.594033785308
C     -0.591214686472      0.827328401376      0.175434895405
C     -1.466290080077      1.661577737780     -0.504224231473
C     -2.132153154508      2.676774796552      0.149463380850
C     -1.927033899124      2.879043769182      1.496871270024
C     -1.050484717538      2.067867284857      2.184387947220
C     -0.386214703411      1.052241740027      1.528724936488
H      1.079100517813     -1.150250252721      1.148934531168
H      4.859823553932      0.731149124800     -2.027525845262
H      4.008210542308      1.732127163254     -0.812234331426
H      4.997027599659      0.343579828218     -0.285374786001
H      2.192024719646     -2.241083336513     -1.432676067111
H      1.670239690322     -3.138293793674      0.007653741663
H     -1.272844293431     -1.284955532122     -1.976141332777
H     -2.031134510524     -3.015285204698     -0.218469107454
H     -1.297357426653     -2.009869904453      0.996011050127
H     -3.792413840301     -1.586370229218      0.758738645584
H     -3.529727038796     -1.076668880309     -0.905050470319
H     -2.870318912532     -0.134406314905      0.422617936041
H      0.515399868940      0.197938828306     -1.505545439574
H     -1.624620913049      1.505069624282     -1.557597068041
H     -2.810945261120      3.313185168003     -0.394083344966
H     -2.443939359695      3.673682736312      2.009428397458
H     -0.876160052869      2.233051871539      3.234968564435
H      0.321207059958      0.452029537421      2.071742069808
