35
OptimizedStructure
C      1.604192285515     -0.285883165224      0.789129257865
C      3.021402568708     -0.017706107033      0.320096985381
O      3.891563683190     -0.090786106397      1.164852241110
O      3.262635742762      0.311363259381     -1.028302103646
C      2.957913997617     -0.696287438916     -1.982472702039
C      1.281453793112     -1.792195697823      0.926966557870
O      0.043955591570     -2.063616848281      0.262243508052
C     -0.198006716625     -1.018680550040     -0.700846401483
C     -1.688383996582     -0.872923130000     -1.008679010446
C     -2.271473308992     -2.156597229984     -1.562766908840
C      0.499079517168      0.270800231930     -0.152797749950
C     -0.437597954977      1.204142597169      0.574837074981
C     -0.639357461262      2.499675099527      0.124853947286
C     -1.492115483024      3.351337118989      0.795355588026
C     -2.153915477388      2.918558921842      1.924827957227
C     -1.961651566557      1.632535038227      2.382675007576
C     -1.108774186129      0.782667023085      1.710906310668
H      1.499775580115      0.202228485055      1.767736447476
H      3.845698321799     -0.865278204985     -2.592822272980
H      2.688352415536     -1.627967697424     -1.486794436021
H      2.144617160535     -0.359916403993     -2.625464983951
H      2.059251397044     -2.410636751819      0.468493459499
H      1.184019739958     -2.106665635939      1.972713480180
H      0.312228268074     -1.353109598210     -1.616455292658
H     -2.211154984157     -0.592980492165     -0.088521102543
H     -1.841446793517     -0.039905474729     -1.705223481621
H     -3.344133952810     -2.075589717196     -1.749915198883
H     -2.115475748567     -2.982135649184     -0.866332214511
H     -1.791423614492     -2.435334445211     -2.502069439586
H      0.972876706678      0.823151728830     -0.975120867843
H     -0.118145403111      2.839420162289     -0.753551910290
H     -1.638666057045      4.357225136830      0.437607559150
H     -2.818753089024      3.584787952944      2.449710354222
H     -2.477088890713      1.291266365597      3.265314529059
H     -0.961452084410     -0.224962777143      2.059815811665
