35
OptimizedStructure
C      1.237883726247     -0.876469350364      0.113033022837
C      2.585757277259     -0.207614830134     -0.000540028684
O      3.148307226244      0.171168861901      1.004698474109
O      3.072267129432     -0.062503100139     -1.264050213543
C      4.305954969159      0.578241746911     -1.212964992352
C      1.149683264118     -2.201257144922     -0.669260020138
O     -0.162503461211     -2.323727950427     -1.235799601854
C     -0.909793431477     -1.104209096279     -1.002445585102
C     -2.051898528322     -1.368271209717     -0.022197291828
C     -2.972906269932     -2.463658731493     -0.517687389946
C      0.107887348527     -0.023459633202     -0.513500587619
C     -0.488317140696      1.066113197931      0.352023313276
C     -1.100149932505      2.146614864945     -0.265474285378
C     -1.684138118838      3.151986327896      0.475712237473
C     -1.669883678437      3.090247755069      1.851997547013
C     -1.073052304144      2.019773711810      2.481717248552
C     -0.490330021426      1.014612244187      1.738113203759
H      1.032011979056     -1.064471297034      1.171883978548
H      4.694712010783      0.693695347649     -2.226771280619
H      4.178209276101      1.558019049534     -0.746810172878
H      4.994020617047     -0.023085037915     -0.614162857362
H      1.867496608805     -2.205080460241     -1.496752236804
H      1.345368091929     -3.078988578273     -0.042848510104
H     -1.329248458519     -0.814475409803     -1.978008537352
H     -1.616880953261     -1.648977411994      0.943305337085
H     -2.610272172963     -0.442039906036      0.158445925716
H     -3.768805875948     -2.687872972852      0.195394445159
H     -2.414764318991     -3.384274142165     -0.695816275432
H     -3.442392255214     -2.186624539517     -1.462805355964
H      0.548480640500      0.465935685862     -1.394819116551
H     -1.115943995066      2.193645432647     -1.340947148514
H     -2.150919670791      3.986273696434     -0.021636432145
H     -2.123262498212      3.876082319240      2.433633845423
H     -1.059625669426      1.968634598977      3.558110602590
H     -0.032951409827      0.186015961514      2.247228738631
