35
OptimizedStructure
C      1.271784678064     -0.942382210580      0.104398908121
C      2.573452352113     -0.179346890255      0.107806286743
O      2.922222668980      0.376147674171      1.128253549745
O      3.259032013941     -0.150500206569     -1.068087809299
C      4.418318914570      0.601601210957     -0.908737584262
C      1.337486121132     -2.273406100552     -0.671396098179
O      0.104348141159     -2.458763145430     -1.377832628244
C     -0.788605224295     -1.356589254964     -1.078618525886
C     -1.835393450571     -1.826672040682     -0.035715886086
C     -3.266813638759     -1.438548780720     -0.365407867471
C      0.123329479371     -0.175104181744     -0.598367897023
C     -0.552921447752      0.903373611738      0.219524521581
C     -1.708065251450      1.505673028998     -0.253240835750
C     -2.336666775946      2.498955137638      0.468089324675
C     -1.804790418426      2.922836207752      1.666789710640
C     -0.632087330765      2.366069082223      2.129371172124
C     -0.006513117916      1.373574155896      1.405024725780
H      0.983907147538     -1.139774909301      1.144869027021
H      4.969502406976      0.618171077001     -1.851188349288
H      4.145226365277      1.618303304784     -0.616889387320
H      5.030377702550      0.149334083163     -0.124892495928
H      2.141584628938     -2.243517310369     -1.414949214465
H      1.504424661120     -3.139044534246     -0.020385654890
H     -1.288168985041     -1.102236643744     -2.025489387204
H     -1.759966388278     -2.918995355801      0.035130201541
H     -1.550255287867     -1.459377074085      0.956884929228
H     -3.975266718302     -1.847412244305      0.357826355645
H     -3.556953205717     -1.806606835988     -1.350667189701
H     -3.402644095996     -0.357788236383     -0.370536799526
H      0.560030709405      0.312331723035     -1.481792784325
H     -2.101399483336      1.203156492594     -1.208463967802
H     -3.240226224218      2.948745384323      0.090546569064
H     -2.293751110165      3.700077928431      2.230859640608
H     -0.194805984861      2.716769610551      3.049809137411
H      0.950266148527      1.000946242467      1.727476302720
