35
OptimizedStructure
C      1.163512099770     -0.700608391536      0.466725249609
C      2.534875447323     -0.203416142420      0.072052167515
O      2.974313958578      0.787062294888      0.616871972817
O      3.179118057527     -0.895854515829     -0.909027172634
C      4.410409233380     -0.300815420756     -1.163789846592
C      0.925385044956     -2.178900642975      0.105898468279
O     -0.399556226291     -2.308895042564     -0.396347784546
C     -0.771151035894     -1.055145274986     -1.001711830258
C     -2.289460381324     -0.970935735342     -1.133719248751
C     -2.827946736592     -2.079164954679     -2.017688464578
C      0.031549500761      0.094129584280     -0.259919588781
C     -0.611138926454      1.098099697058      0.697013611444
C     -1.969905129191      1.324062851602      0.867491213721
C     -2.433142003534      2.284400956730      1.744548938559
C     -1.548885264764      3.054610198739      2.465975835491
C     -0.196404787110      2.865501744682      2.299018194908
C      0.257856939571      1.905044666678      1.422162808333
H      1.046436374502     -0.570694376870      1.550313921200
H      4.927125742058     -0.860901178835     -1.945765762502
H      4.247507429648      0.729730965619     -1.487351417316
H      5.003653058485     -0.305042156939     -0.246473029713
H      1.614304451959     -2.501206108500     -0.682927338557
H      1.046343049924     -2.853178420785      0.961995006784
H     -0.362572128836     -1.130076816789     -2.023668047384
H     -2.725259975243     -1.067826549777     -0.133943242595
H     -2.577159388980      0.007634466831     -1.535589110703
H     -3.917709429729     -2.061095600988     -2.084072759996
H     -2.533642811882     -3.056855460664     -1.632434163393
H     -2.433850067016     -2.003412919755     -3.032331102145
H      0.512181956018      0.705141444182     -1.038352955275
H     -2.694470504997      0.773098672791      0.305271787028
H     -3.493681273105      2.436640112084      1.862273545185
H     -1.912540835227      3.803713653417      3.150122667974
H      0.506552475326      3.467762289326      2.850877573091
H      1.317352086383      1.767392112081      1.286499903779
