35
OptimizedStructure
C      1.440923512607     -0.156656722583     -0.237243040184
C      2.438823096987      0.011806730207     -1.361071252911
O      2.164925630549     -0.470604802801     -2.440879162693
O      3.631699995279      0.708170002715     -1.060560609485
C      4.591916624417     -0.070745719854     -0.372515440034
C      1.314999835644     -1.636144036650      0.202513746173
O     -0.049060133068     -2.045529118757      0.074998014379
C     -0.691872310980     -1.155019078511     -0.856496600636
C     -2.210442843352     -1.146054735060     -0.686920799254
C     -2.801214034640     -2.526413885911     -0.887685434214
C      0.008482896261      0.231207730116     -0.695105397279
C     -0.672986728969      1.145753200383      0.292241403223
C     -1.118604905690      2.401176511365     -0.090871530254
C     -1.733544983376      3.235529026176      0.819049345883
C     -1.909605838268      2.825526157568      2.123713365141
C     -1.469688937352      1.579635626583      2.517230543936
C     -0.855320071117      0.747238003904      1.605924419304
H      1.743319475647      0.481217419070      0.603554340143
H      5.493229728414      0.526859951577     -0.234171330836
H      4.199058608526     -0.372199796486      0.598753141403
H      4.826091522257     -0.952559174097     -0.970296401821
H      1.911789335237     -2.283598054249     -0.449496624948
H      1.634246629498     -1.802792355421      1.237770983845
H     -0.444415439005     -1.566039942972     -1.849357731891
H     -2.449360500410     -0.778689516527      0.316398971691
H     -2.654380012334     -0.424483218719     -1.383140710936
H     -3.881903939416     -2.539556443086     -0.732435667423
H     -2.355159877303     -3.240681017522     -0.193655142926
H     -2.606536638945     -2.895931593650     -1.895670994431
H      0.069523643434      0.733380049752     -1.670916312267
H     -0.976557272598      2.722833762785     -1.108236718706
H     -2.074724093324      4.209910683448      0.510137650872
H     -2.389368005226      3.478044572742      2.834626847068
H     -1.606397964197      1.255788939463      3.535850142212
H     -0.517886005185     -0.230379154996      1.903963987855
