35
OptimizedStructure
C      1.462268306083     -0.103486874600      0.737113606390
C      2.800272703713     -0.116702461193      0.039004336014
O      3.779712695036      0.279656176635      0.632623148553
O      2.805332814644     -0.610622162163     -1.233013427307
C      4.098061616580     -0.596881461569     -1.771708779533
C      1.123194923091     -1.488406105740      1.341651014316
O     -0.111849766245     -1.950847130359      0.786599951092
C     -0.358590157342     -1.220549463655     -0.430566882420
C     -1.841502695658     -1.209855481770     -0.799552982266
C     -2.379967121521     -2.613413875719     -0.985598706807
C      0.291605037928      0.186459618737     -0.241819265257
C     -0.656862087986      1.226153396402      0.302126293483
C     -0.905212667091      2.397336385224     -0.396564527117
C     -1.767942305531      3.347126514753      0.109273940830
C     -2.392625267348      3.138279163006      1.320612108531
C     -2.153484035883      1.977777638546      2.025304336392
C     -1.290877351551      1.029652065806      1.517579021663
H      1.489367513109      0.668320051171      1.517775536632
H      4.385254071439     -1.617682246807     -2.030945341485
H      4.102881101633      0.023909476454     -2.669617338911
H      4.808601761028     -0.192603999270     -1.046238455010
H      1.896161297645     -2.221763944577      1.087395147298
H      1.024716973944     -1.462891227975      2.433065411233
H      0.198473245692     -1.771554731787     -1.205733570969
H     -2.396470277012     -0.698286466344     -0.006446179411
H     -1.991516253649     -0.609043137085     -1.704533497475
H     -3.447903264317     -2.619073400220     -1.212930191959
H     -2.227547867903     -3.206983188964     -0.082689465959
H     -1.865396913434     -3.129012225196     -1.797895733006
H      0.701952439992      0.539178242360     -1.198217895127
H     -0.414115020006      2.562070538957     -1.340125156835
H     -1.952070326079      4.254520647357     -0.442062852253
H     -3.065733688046      3.881103069087      1.716192743871
H     -2.640506833545      1.810993032010      2.971954171375
H     -1.107682601409      0.117123568489      2.057989481437
