35
OptimizedStructure
C      1.540801921990     -0.413003551039      0.361407766927
C      2.820155920229     -0.185090045746     -0.406985862770
O      3.866957630323     -0.101813261239      0.199032100229
O      2.703946695998     -0.113575181529     -1.762780604500
C      3.962676228815      0.073093170962     -2.325199812478
C      1.189020284302     -1.918421623107      0.443331141602
O     -0.099522371180     -2.129433788887     -0.141420928528
C     -0.405855857545     -0.998293581615     -0.981943363331
C     -1.929587060995     -0.821689065161     -1.230766638258
C     -2.766684030329     -1.832344433003     -0.473163507115
C      0.311752004836      0.230967402877     -0.335827926538
C     -0.551147079518      0.998324990429      0.635229764905
C     -0.825731402905      2.342170773508      0.434098641483
C     -1.616908471046      3.038055145893      1.324070065645
C     -2.143083879957      2.399270744558      2.426898188823
C     -1.876351960823      1.063420696937      2.638589809643
C     -1.085348654589      0.370006238103      1.747406797500
H      1.661974622107      0.015839486267      1.365033488073
H      3.868325268851      0.129692166134     -3.411502303991
H      4.391437997117      1.000104247996     -1.937507951453
H      4.603037469341     -0.767683977485     -2.048456017953
H      1.911910899199     -2.516720016731     -0.121816077055
H      1.168316443549     -2.294393867874      1.472754510013
H      0.098287059329     -1.233582044397     -1.935139064788
H     -2.228395566817      0.196803024936     -0.955359887110
H     -2.143842420838     -0.892373521235     -2.305306699654
H     -3.835359719408     -1.713051180333     -0.663081790903
H     -2.607757027730     -1.745252074552      0.602020098744
H     -2.487360260518     -2.849673661751     -0.751034288181
H      0.661943771777      0.913681547359     -1.122464627153
H     -0.412703132948      2.841351488002     -0.425471187045
H     -1.822484154583      4.082748084877      1.157969915902
H     -2.760302343496      2.943470784780      3.122764182407
H     -2.285338116622      0.561136977364      3.499746397259
H     -0.876780705917     -0.673742095298      1.904875669643
