35
OptimizedStructure
C      1.507603060011     -0.994434205326      0.617230077267
C      2.891705202710     -0.826349217561      0.021574027421
O      3.789804105445     -1.523393207705      0.448548517099
O      3.045547547976      0.162776086835     -0.975497127289
C      3.068990870868      1.486228511415     -0.474251944002
C      1.249976107639     -2.453040812616      1.062126293435
O      0.240550936069     -3.025716902457      0.233648724696
C     -0.542995032537     -1.966450140880     -0.357882344982
C     -1.867929270272     -1.806632840037      0.400474105020
C     -2.936965890589     -1.056659862094     -0.376326891416
C      0.388508667940     -0.704721141555     -0.423988283596
C     -0.286763609028      0.636271217817     -0.251629844987
C     -0.534694438622      1.425692953132     -1.364881461456
C     -1.150319980679      2.653011667103     -1.238954715588
C     -1.529666212468      3.109861044565      0.004625593185
C     -1.291537250265      2.336451135865      1.120186483296
C     -0.674995374588      1.109384136004      0.992591866648
H      1.422217252344     -0.313878960086      1.472500944583
H      3.898963623950      1.581969419305      0.226948569446
H      3.213584115945      2.173710124053     -1.307907658397
H      2.129516567894      1.713754314916      0.029082170281
H      2.157847527947     -3.057246756653      0.942465726387
H      0.920782962199     -2.528397671850      2.104850324999
H     -0.768251210564     -2.309596443101     -1.379975832371
H     -2.231427088973     -2.810337081644      0.652953787762
H     -1.670870173340     -1.329913656752      1.365530043247
H     -3.872647668622     -0.987464711032      0.181898159722
H     -3.156361576690     -1.552668724612     -1.322987281924
H     -2.626123256218     -0.039524238413     -0.612969772717
H      0.882047241105     -0.700635835749     -1.407180701048
H     -0.237244508323      1.070958962658     -2.336758086197
H     -1.333880137372      3.255378423418     -2.113418093196
H     -2.010568242140      4.069082679164      0.104499296511
H     -1.587465290207      2.691015726454      2.093831278120
H     -0.496939578548      0.511516007418      1.869044050043
