35
OptimizedStructure
C      1.254611381281     -0.569565326319      0.067839396310
C      2.543468149426     -0.018747130650     -0.499149549683
O      2.517311972640      0.811758953142     -1.381747018373
O      3.683741850706     -0.524024205915      0.049986368740
C      4.788507200370      0.056947552911     -0.563157298756
C      1.136057075272     -2.097964370664     -0.152250241774
O     -0.040368476840     -2.380401254229     -0.915631756645
C     -0.910766571102     -1.230386424783     -0.882754745215
C     -2.016517584773     -1.434268789387      0.151775527705
C     -2.839919737339     -2.669843415842     -0.147862956897
C      0.003276311006      0.015351878990     -0.641412440237
C     -0.655306942907      1.176612969684      0.069326372806
C     -1.087499626523      2.269983413803     -0.666134789522
C     -1.706515683551      3.337635492962     -0.051066938369
C     -1.907077813493      3.326558091781      1.312222025707
C     -1.487797370592      2.245221630990      2.056582001043
C     -0.868142073900      1.178657911482      1.439432907596
H      1.226273126151     -0.333718962408      1.137939343758
H      5.701095076332     -0.349503447422     -0.122405411197
H      4.758144174373     -0.164330659619     -1.632628571609
H      4.749605855969      1.138483921869     -0.413666695463
H      1.995631644559     -2.474203856702     -0.717799721896
H      1.077833520759     -2.657645078435      0.788129372679
H     -1.366371097941     -1.168977790776     -1.883395929359
H     -1.552332133114     -1.525121002494      1.139383891483
H     -2.654241321856     -0.543448002461      0.196542356952
H     -3.607056158214     -2.848070810925      0.608423687047
H     -2.203624724921     -3.555196670515     -0.193241113271
H     -3.340010090791     -2.585958956859     -1.113940434916
H      0.353627332402      0.379950262573     -1.618643481416
H     -0.928872406650      2.281666114835     -1.730855888546
H     -2.031405670500      4.181852517146     -0.636750808871
H     -2.389317079556      4.160895486962      1.794619835773
H     -1.643960987014      2.233096615426      3.122790404105
H     -0.552081119671      0.336703341848      2.029502300309
