35
OptimizedStructure
C      1.530154602919     -0.664150939621      0.170921532725
C      2.774586441962     -0.435660678986     -0.657169560514
O      3.661881210328     -1.261332263157     -0.634225405424
O      2.820341982750      0.721004490612     -1.377264324463
C      4.024322611163      0.786171814741     -2.070915493331
C      1.134961414041     -2.162585593477      0.196540967867
O     -0.163063291835     -2.321633496269     -0.386319275183
C     -0.484300285292     -1.126325655897     -1.122153455616
C     -2.002894508231     -0.933998125359     -1.278477862721
C     -2.790009765002     -1.279462428982     -0.005323513087
C      0.284568787182      0.046060870782     -0.429154990616
C     -0.519760232183      0.811899480982      0.594574834511
C     -1.092591383366      2.028554132410      0.256550553244
C     -1.849397824902      2.730973519952      1.170601075703
C     -2.046487972292      2.225098396516      2.437483857670
C     -1.486129613694      1.015341795596      2.786877219976
C     -0.730036984404      0.314420056039      1.870993978126
H      1.724521731523     -0.290065102428      1.184260638155
H      4.061791495689      1.714980387435     -2.643708055299
H      4.848369112749      0.754528476448     -1.354274786157
H      4.093826721186     -0.071980080704     -2.743424330211
H      1.840719345527     -2.755814946794     -0.396355608557
H      1.110984319499     -2.578336245519      1.210292172747
H     -0.035406706818     -1.283444211760     -2.117686719111
H     -2.198625220752      0.097244163086     -1.597638658814
H     -2.359103325980     -1.559988231482     -2.107042611332
H     -3.447085626497     -0.467481336827      0.314952260070
H     -2.112478109613     -1.497002544401      0.820836225371
H     -3.410593463378     -2.169215839280     -0.133646689608
H      0.627748002048      0.759151544617     -1.192336892953
H     -0.940026729949      2.424042879155     -0.732960298375
H     -2.286327253213      3.676433693086      0.894143310551
H     -2.637114759939      2.773743654489      3.152670724117
H     -1.640527144059      0.615595432210      3.775610445043
H     -0.306817577167     -0.636767067211      2.142768735495
