35
OptimizedStructure
C      1.448684169356     -0.361112527645      0.429592014938
C      2.561825182881     -0.593211362963     -0.560753392605
O      2.406145694970     -1.408032068583     -1.443219885663
O      3.692547255369      0.147624946523     -0.369442153916
C      4.661429670096     -0.157176479071     -1.332879602396
C      1.277807662002     -1.563742464827      1.390390494479
O     -0.057618560291     -2.061492262590      1.280467739519
C     -0.592771104855     -1.620617657388      0.016123877937
C     -2.123161392947     -1.637130274721     -0.004313340921
C     -2.700667823450     -1.312974068737     -1.369980529941
C      0.072877678386     -0.238773732444     -0.280299051172
C     -0.716077587864      0.942152878771      0.228342063912
C     -1.071527935027      1.979812432902     -0.619386595339
C     -1.782445011286      3.061994087547     -0.144373327247
C     -2.143182908605      3.122372146296      1.185086819088
C     -1.790341717222      2.099542872832      2.039436854530
C     -1.080094517080      1.018602009440      1.562209568811
H      1.661035611785      0.560520180875      0.987492736372
H      5.556161034870     -0.529916457293     -0.830574395796
H      4.287478375336     -0.918664603986     -2.021959003144
H      4.905592159148      0.749186820722     -1.890226196522
H      1.955368303066     -2.378548750019      1.111914107952
H      1.467393905589     -1.303069371604      2.438110938933
H     -0.219089830909     -2.355426270030     -0.716153388014
H     -2.465156303534     -2.623019500648      0.332179930486
H     -2.494663197285     -0.934975765777      0.748766417697
H     -3.791982663507     -1.343582010771     -1.370438504352
H     -2.350997459362     -2.020551596294     -2.123279853735
H     -2.401543333650     -0.317676170940     -1.700858581936
H      0.236569920132     -0.127423002093     -1.361260774194
H     -0.782782830500      1.936345328548     -1.655441678924
H     -2.053732788371      3.862560835174     -0.812746336043
H     -2.697841680069      3.968548537240      1.556139608628
H     -2.069266348707      2.144191501207      3.079316201439
H     -0.805971628468      0.213661820349      2.222017217139
