35
OptimizedStructure
C      1.536185742692     -0.414102626493      0.508957286292
C      2.700416369349     -0.418245861253     -0.455271779765
O      3.567985630464     -1.258151353959     -0.348644207019
O      2.694687451780      0.567472979737     -1.397051414225
C      3.823996575464      0.445552327965     -2.200072285017
C      1.270417849213     -1.817869281572      1.110249599435
O     -0.061739348324     -2.225048351562      0.784120370432
C     -0.517672617354     -1.425286333612     -0.325967576283
C     -2.064690307854     -1.373967463842     -0.416892591315
C     -2.595482894124     -1.917512653559     -1.731352495287
C      0.201607382575     -0.044735019085     -0.194484520095
C     -0.575195392481      0.975083249363      0.599778642094
C     -0.763353174647      2.260356213358      0.116222949227
C     -1.456999587634      3.194077764276      0.857368475632
C     -1.966757574777      2.855504694265      2.093116111741
C     -1.779711380368      1.582345580584      2.588005951662
C     -1.085950914952      0.650854504148      1.845352044796
H      1.745786627923      0.314931880589      1.302758230736
H      3.821073463494      1.238118916018     -2.951061123323
H      4.715097579446      0.527063108499     -1.573262450661
H      3.810172894741     -0.532187676472     -2.687188080016
H      1.957982629153     -2.555656454966      0.680516113741
H      1.383068429977     -1.841685579976      2.200252336825
H     -0.126183065529     -1.945617297910     -1.215461626188
H     -2.475074387238     -1.945434490295      0.424421581510
H     -2.413150889445     -0.345957475942     -0.264988803352
H     -3.685676665908     -1.882847973889     -1.779029603311
H     -2.293105424155     -2.955589955201     -1.878016628685
H     -2.210659956085     -1.345928448371     -2.577441662407
H      0.416046247814      0.363137171906     -1.192014418481
H     -0.355481877072      2.526331803097     -0.843743719290
H     -1.597617112247      4.190323651660      0.471437755560
H     -2.507839306286      3.585621735387      2.672339843169
H     -2.174414936743      1.315198419481      3.554428361036
H     -0.937768060862     -0.346149702373      2.222619330832
