35
OptimizedStructure
C      1.626667674082     -0.243139529372      0.482047338970
C      2.762006211544      0.009190968947     -0.480541044807
O      3.830973050143      0.383003975536     -0.047595286256
O      2.503305816319     -0.232777500355     -1.796456857561
C      3.647660116487      0.019899046466     -2.546208466802
C      1.595044663053     -1.719577502585      0.947231114510
O      0.325665216674     -2.287253135046      0.613493165643
C     -0.279414752167     -1.471049942634     -0.410382669668
C     -1.802501014039     -1.628767861833     -0.444409410035
C     -2.471172416393     -0.853876641036     -1.594709017006
C      0.236673878246     -0.015913704219     -0.172932450374
C     -0.670197904701      0.817166688574      0.698640236569
C     -1.194136512012      2.015399681542      0.238845902647
C     -2.020134797297      2.774328360304      1.041225521484
C     -2.331101897223      2.345749886548      2.314312646553
C     -1.814576419490      1.156945439651      2.783882893903
C     -0.989529048623      0.399649474868      1.979794374581
H      1.745200885249      0.433929287949      1.338399810939
H      3.439551663118     -0.174974035868     -3.600192325280
H      3.939679020455      1.063587019888     -2.408505274369
H      4.451626151075     -0.632056878900     -2.196641886230
H      2.365602947924     -2.304609805254      0.433424080129
H      1.749803406583     -1.828174262470      2.026993050149
H      0.139315508272     -1.847401631596     -1.357827945849
H     -2.038076991571     -2.698480745016     -0.504881932693
H     -2.204463104895     -1.314639397819      0.524899954744
H     -3.196147064110     -0.121276718592     -1.232625252162
H     -2.999031751011     -1.514311247097     -2.286323081146
H     -1.733711297886     -0.305369353544     -2.183277951222
H      0.376223763198      0.494113864246     -1.136130133098
H     -0.947770775973      2.351841298380     -0.753492241531
H     -2.420899062524      3.704528419444      0.673336771545
H     -2.975526763753      2.939535300142      2.941591704980
H     -2.055702064105      0.818954153901      3.778254379029
H     -0.590906334650     -0.534172973149      2.336760279713
