35
OptimizedStructure
C      1.360315426822     -0.628042549170      0.322402637521
C      2.624003181365     -0.104888056770     -0.321627157299
O      2.596525914571      0.342360287604     -1.447832684623
O      3.746190558124     -0.190218786106      0.446728647276
C      4.831775502541      0.309516296854     -0.264314076150
C      1.406145479081     -2.162527612485      0.514256352557
O      0.328797648384     -2.764008728467     -0.206072252376
C     -0.658083807157     -1.756034898341     -0.521375723142
C     -1.839473019443     -1.852170181399      0.453777684763
C     -3.106655582430     -1.178010031494     -0.045012313520
C      0.106576060938     -0.388233120154     -0.562649436149
C     -0.691217372955      0.844304428634     -0.201833027726
C     -1.162763629814      1.670499847588     -1.211234279347
C     -1.903960538367      2.795511498474     -0.917539694602
C     -2.187106727002      3.111884831123      0.393424193741
C     -1.726582510512      2.300764551229      1.407894907396
C     -0.984784213995      1.176163502515      1.112269434302
H      1.241645192625     -0.126208170095      1.289730857662
H      5.730406365434      0.237762973633      0.351829580046
H      4.956560541104     -0.275286698583     -1.178738047358
H      4.636838298150      1.352947837311     -0.522887015939
H      2.340372944803     -2.574379247062      0.116774222224
H      1.323678666422     -2.460606466846      1.565674554772
H     -1.018655712478     -2.006492742134     -1.531324364140
H     -2.035745912987     -2.915564173466      0.637762570431
H     -1.532503040767     -1.452109657801      1.425062527627
H     -3.930896268659     -1.285770046180      0.662749541674
H     -3.432240977105     -1.605738482092     -0.994432245315
H     -2.959343038061     -0.111036507964     -0.209686952132
H      0.486765926398     -0.244704966097     -1.585376409977
H     -0.939733441217      1.426688503526     -2.235792015548
H     -2.259618019790      3.428720631086     -1.713656925816
H     -2.764965951782      3.991652874406      0.624603191779
H     -1.945897867274      2.545892212666      2.434109849575
H     -0.636370074964      0.547360846055      1.912333867813
