35
OptimizedStructure
C      1.248553387351     -0.590130413334      0.736100104870
C      2.616751575714      0.056782344233      0.809434984912
O      2.724941098811      1.056696460037      1.490726595213
O      3.668021105975     -0.532051732140      0.071095196696
C      3.648599926105     -0.241456622555     -1.314623432672
C      1.309797612442     -2.086065964374      0.344171600719
O      0.377735158452     -2.329065495992     -0.713492031497
C     -0.505658919971     -1.192226807794     -0.821419171993
C     -1.774283249075     -1.468473677558     -0.008673249149
C     -2.455092201964     -2.744818146168     -0.457299496120
C      0.318002476079      0.047968105339     -0.332865185902
C     -0.495528654235      1.241826378375      0.123113038026
C     -1.628312478870      1.631950727180     -0.575698288865
C     -2.359342205675      2.734221501765     -0.184362567145
C     -1.955096806904      3.481621169149      0.900657633603
C     -0.807016204222      3.134935820112      1.579067939036
C     -0.079834831792      2.032409894334      1.184185810503
H      0.772029143771     -0.486874393671      1.719347383230
H      4.595874564213     -0.561406273453     -1.749222652146
H      2.829980144236     -0.776937973648     -1.795901860211
H      3.530050227742      0.833898052182     -1.453062234502
H      2.306477462378     -2.355795871021     -0.021126823108
H      1.067336016844     -2.753082848361      1.179296159808
H     -0.759298685072     -1.093490222432     -1.887638167448
H     -1.494446214946     -1.542368792685      1.047933340199
H     -2.465748589218     -0.621741935376     -0.071009037031
H     -3.335953266843     -2.976989070572      0.144722825805
H     -1.770279295034     -3.591532907882     -0.387492610613
H     -2.773288776235     -2.676592914102     -1.498700752884
H      0.953203442209      0.393055785876     -1.159129351077
H     -1.928471169462      1.072854307622     -1.445204773381
H     -3.243813603211      3.015377195432     -0.732059359462
H     -2.524370578511      4.344180074533      1.206123105464
H     -0.468373697621      3.733654990583      2.408715183375
H      0.856856086536      1.809669256366      1.664290143745
