35
OptimizedStructure
C      1.245188537734     -0.551210250154     -0.427006252638
C      2.497374817876      0.248510505930     -0.704562588817
O      2.809150214821      0.440291940943     -1.861618372940
O      3.200210042477      0.732826383221      0.423089259087
C      3.986363784822     -0.248140693787      1.073868210202
C      1.220150391049     -1.909784672540     -1.153032177084
O     -0.114957645106     -2.169245089023     -1.607661423212
C     -0.970245149427     -1.060575605653     -1.239585471457
C     -1.844296479601     -1.473467887595     -0.053009592930
C     -2.656350449148     -2.713299054470     -0.365046565442
C     -0.027986581001      0.156363149849     -0.950842240031
C     -0.584891665242      1.240292038882     -0.053153894752
C     -1.874725227158      1.712831114951     -0.240973096227
C     -2.381162466690      2.723179542127      0.549476526237
C     -1.596371258724      3.292722884236      1.528867858069
C     -0.299855111297      2.859875253213      1.704171919096
C      0.203015014517      1.849268731162      0.912900673623
H      1.147189538032     -0.702061833924      0.655259233334
H      4.540240337724      0.227320522440      1.883619211920
H      3.347311161345     -1.032827180457      1.478968910764
H      4.686668476850     -0.673619075152      0.353968830051
H      1.866722056799     -1.878579774773     -2.037435911918
H      1.545415594705     -2.740790078476     -0.517066004787
H     -1.604502428145     -0.856381688482     -2.115378443880
H     -1.189961782363     -1.657876458225      0.806068734967
H     -2.499865491062     -0.648707992433      0.246324194270
H     -3.250291340947     -3.044266776147      0.489311147340
H     -2.003457982104     -3.537317189240     -0.657499023811
H     -3.340315983812     -2.537389032765     -1.196717906103
H      0.243253011144      0.629432712326     -1.906118186933
H     -2.479582733578      1.290837335564     -1.025138521821
H     -3.389004144502      3.072523978723      0.396170635778
H     -1.990104947184      4.084275744691      2.145154232706
H      0.325945151229      3.319803659426      2.451320180183
H      1.233730735968      1.555184835611      1.013305917154
