35
OptimizedStructure
C      1.458771240149     -0.094956432395      0.103282996036
C      2.527160195855      0.127373951850     -0.942768662188
O      2.341748209896      0.938900969033     -1.823439585145
O      3.661667787452     -0.618091994698     -0.799183771457
C      4.585312008365     -0.329045819268     -1.811020165369
C      1.319417811579     -1.590304957253      0.486587777534
O     -0.014968423160     -2.026434561534      0.204849935263
C     -0.613728136150     -1.087912357178     -0.709488632132
C     -2.139995287073     -1.109076583550     -0.632201870262
C     -2.695868767265     -2.481282943663     -0.952552864666
C      0.048748207736      0.295509738043     -0.418808734307
C     -0.707771953789      1.138576445613      0.577486804259
C     -1.132717146010      2.416378115440      0.248681137603
C     -1.814944758161      3.187280982825      1.166537944449
C     -2.079000728889      2.690959119360      2.425578620998
C     -1.658901013113      1.422694213205      2.765678188171
C     -0.977115498143      0.653892368451      1.846468500238
H      1.704025467908      0.513341615011      0.983781866385
H      4.796670850876     -1.242186977702     -2.370682326414
H      4.183540735606      0.428360292756     -2.488761771293
H      5.505415793464      0.042385044618     -1.355852856306
H      2.003197633477     -2.207084470362     -0.106875217500
H      1.527730800344     -1.777390700790      1.546197273342
H     -0.303955389499     -1.431900517671     -1.709446574738
H     -2.444841966950     -0.808054995125      0.375271772083
H     -2.553369088359     -0.351018474214     -1.308199753074
H     -3.783578743825     -2.516946543911     -0.864086484205
H     -2.281148570558     -3.231843310275     -0.277684545120
H     -2.435800434560     -2.785270401922     -1.967641046428
H      0.160397504377      0.861396732997     -1.354652445180
H     -0.919150028869      2.806139003435     -0.731707111543
H     -2.139337066224      4.179720115691      0.899952726857
H     -2.611250601646      3.293859642655      3.142909763309
H     -1.863285795216      1.031873964506      3.748854199768
H     -0.653074849624     -0.339840273977      2.102934911034
