35
OptimizedStructure
C      1.341303310230     -1.174894782682      0.157868991090
C      2.843661972022     -0.920222639869      0.305129949789
O      3.420060718942     -1.862825612346      0.816510765317
O      3.566872110460      0.205644534524     -0.051555722453
C      2.900100359625      1.318908183098     -0.593562511975
C      1.104491451559     -2.501698780820     -0.600144951423
O     -0.132713314047     -2.434401746741     -1.317966616532
C     -0.738561874410     -1.142347498123     -1.100508674315
C     -1.925855499343     -1.278806769161     -0.146032995620
C     -2.941844789376     -2.278230360576     -0.658473209700
C      0.388895270817     -0.188571922032     -0.581494281576
C     -0.146291924895      0.985098616033      0.213400976570
C     -0.887536639283      1.952666850449     -0.447702726211
C     -1.408239685922      3.035172120947      0.229082262687
C     -1.193606970531      3.168944517768      1.583439385827
C     -0.456218534905      2.218690312382      2.255758257935
C      0.062777741381      1.135791988517      1.577080481471
H      0.954822230545     -1.307066415332      1.175524555053
H      2.593342326877      1.108299191743     -1.617309617093
H      2.063607004602      1.606782442638      0.038757978860
H      3.608951663582      2.147486257596     -0.617242013417
H      1.903915072581     -2.672769108222     -1.329492563759
H      1.073933913180     -3.369250119610      0.069631805551
H     -1.100178061016     -0.806196948016     -2.084515677111
H     -1.546060030469     -1.594722071050      0.831804121524
H     -2.391404143705     -0.299714779451      0.016701778346
H     -3.773323387910     -2.414939213651      0.035886760123
H     -2.476211076673     -3.252177551492     -0.818239613942
H     -3.357597375141     -1.961991005797     -1.616351258096
H      0.913777302498      0.197412237823     -1.461602734094
H     -1.055574371804      1.848686232243     -1.506023904951
H     -1.982506758851      3.776767107642     -0.301492844894
H     -1.598293113800      4.014949775528      2.114380419612
H     -0.281206730946      2.323782239401      3.313950119382
H      0.652711834125      0.415744716637      2.114803308025
