35
OptimizedStructure
C      1.136116441498     -0.716293022707      0.073501397533
C      2.493888550997     -0.088031090893     -0.142070567153
O      2.592797785343      0.954740791949     -0.752212692538
O      3.544755803545     -0.767178255678      0.398239680316
C      4.726230427842     -0.086670092523      0.123353948549
C      1.076366234865     -2.173483421809     -0.435795582873
O     -0.156333802693     -2.379061160145     -1.137546188473
C     -0.972176267471     -1.191987383494     -1.020845151791
C     -2.040715096966     -1.413533653636      0.052079413289
C     -2.889745981500     -2.630759664810     -0.249845291303
C      0.004298049539     -0.007589848226     -0.716031400036
C     -0.619657452690      1.196888859870     -0.044335059613
C     -1.799347205584      1.731425207599     -0.539707524793
C     -2.370464106556      2.846560094644      0.036581822061
C     -1.759115749532      3.458240609834      1.109452990835
C     -0.569807242235      2.958844374906      1.594391556383
C     -0.002039806211      1.842720273335      1.016574878849
H      0.898912771042     -0.688874126135      1.144307015840
H      5.566864284268     -0.634960157598      0.553405377283
H      4.846243070925     -0.006717507184     -0.959587000295
H      4.670040011145      0.913865051240      0.558267274136
H      1.893331673132     -2.367872146745     -1.138909802237
H      1.145246235246     -2.908802705156      0.373851052860
H     -1.453724138815     -1.050825863913     -2.000265328509
H     -1.536659498015     -1.535121607102      1.017156621580
H     -2.668066355264     -0.521491205658      0.156144934208
H     -3.627497686622     -2.824103156117      0.531556644800
H     -2.265774670606     -3.520611121630     -0.347695655038
H     -3.427242755726     -2.512463679273     -1.191936636639
H      0.449528133104      0.341680176009     -1.658970416693
H     -2.265876299000      1.270392803740     -1.393333782082
H     -3.291843071273      3.243643842703     -0.356688359651
H     -2.202492052992      4.331518879568      1.559097621800
H     -0.076877309793      3.447236561955      2.418910947760
H      0.950837077056      1.488673343079      1.368903261634
