35
OptimizedStructure
C      0.968873273187     -0.908683811445     -0.063594695717
C      2.381129327582     -0.393595694605      0.078540269639
O      2.768179651210     -0.034527361561      1.170705556871
O      3.121554239576     -0.343877143937     -1.063241768631
C      4.383014269235      0.166720883782     -0.774926505540
C      0.854150098734     -2.099306118494     -1.036420002818
O     -0.354490449249     -1.966890114758     -1.795868698419
C     -1.055165386605     -0.769745044603     -1.380171491491
C     -2.284898743823     -1.134561176503     -0.498151201171
C     -2.388757450227     -2.619078997593     -0.212347391155
C      0.003451631521      0.141407785974     -0.667450127104
C     -0.546092260029      1.165579788004      0.303729893738
C     -1.697317022154      1.876674468434      0.000462382523
C     -2.190016248223      2.830749764187      0.866024880088
C     -1.527058931940      3.103524990311      2.043136684046
C     -0.363408101726      2.429719804208      2.344326855859
C      0.125295375105      1.476716629940      1.476706819767
H      0.601720530442     -1.199682677002      0.928868601502
H      4.977423527231      0.197131776438     -1.690347138186
H      4.274270585560      1.173812440515     -0.365953802713
H      4.866467184757     -0.476482075918     -0.035966953169
H      1.688497977245     -2.092354699567     -1.746472548171
H      0.850632599626     -3.068985813422     -0.526185700272
H     -1.387723728003     -0.287391440457     -2.313364981523
H     -2.232923470668     -0.584543330408      0.448761837382
H     -3.207314093022     -0.783836673533     -0.979202962680
H     -3.274938081958     -2.868402352765      0.375046237968
H     -1.516161791771     -2.973828048636      0.337233540466
H     -2.430970801525     -3.188471251485     -1.141945844505
H      0.568631267886      0.690921814272     -1.433827209146
H     -2.206416234620      1.680428062680     -0.927344278881
H     -3.091729168441      3.366758543025      0.619285602821
H     -1.910352274918      3.849833984725      2.719513310771
H      0.170847519033      2.654343585345      3.252885953498
H      1.061595180974      0.989919504849      1.687554874353
