35
OptimizedStructure
C      1.223068692223     -0.905699165017     -0.090313347886
C      2.544840928700     -0.264031530095     -0.427019021580
O      2.888666044926     -0.191327751155     -1.586367495672
O      3.266152396103      0.207806110437      0.629367460495
C      4.445230829504      0.779408700317      0.163877386296
C      1.088046186509     -2.330361331070     -0.659273895350
O     -0.272868069666     -2.547006679136     -1.055282212419
C     -1.008971527866     -1.301240783241     -0.968478810477
C     -2.069978528653     -1.395339520414      0.127258748286
C     -3.015392127666     -2.555020119753     -0.107135998701
C      0.033773260457     -0.158633022313     -0.741584932229
C     -0.502162108649      1.053541809613     -0.009825124408
C     -1.250191197896      1.980246115180     -0.720201125615
C     -1.786434300551      3.088043393909     -0.098642351169
C     -1.585526410209      3.285736328567      1.249952363620
C     -0.849194193563      2.371987407399      1.972177983035
C     -0.314219748403      1.264046352183      1.348287988670
H      1.108940832945     -0.935416934944      0.998275929315
H      5.023205845431      1.154863484296      1.010772081880
H      5.019060145941      0.021566501650     -0.374637461585
H      4.198587040765      1.599690660379     -0.514262108933
H      1.713197116678     -2.443372139883     -1.552151354483
H      1.373785329503     -3.105839983194      0.060559934866
H     -1.504048237188     -1.173771067370     -1.943282297310
H     -1.559126629085     -1.512707641420      1.089332501002
H     -2.622075900036     -0.450406853410      0.194676360078
H     -3.751920235266     -2.655515981940      0.692637332041
H     -2.463402901044     -3.494034491399     -0.173069110963
H     -3.558745276021     -2.437229736293     -1.045916354873
H      0.394830324504      0.187382258513     -1.721907313586
H     -1.410865092057      1.824457389305     -1.773319361093
H     -2.362046772397      3.799265515822     -0.667941718322
H     -2.001979225164      4.151735540638      1.737803300209
H     -0.689494650984      2.524158531863      3.027049310736
H      0.257258158173      0.563018631974      1.928582716129
