35
OptimizedStructure
C      1.435002007532     -0.300795593693      0.403985947053
C      2.554924836641     -0.519541486982     -0.582272811789
O      2.383644311648     -1.274403216268     -1.514484129979
O      3.710753342876      0.160122417731     -0.335863397555
C      4.647238948924     -0.149588470249     -1.316237899885
C      1.185471129698     -1.558196492776      1.273782765145
O     -0.164473895819     -1.991821493524      1.090784638527
C     -0.645216606491     -1.431692565705     -0.147956827094
C     -2.193209165556     -1.389305671314     -0.216105792480
C     -2.752103242664     -2.191080468786     -1.377909955304
C      0.082015884120     -0.059778454987     -0.318049487736
C     -0.668089900073      1.104068483670      0.279846634749
C     -0.889710848672      2.260822807204     -0.450931761337
C     -1.561592750795      3.326815427166      0.109992900152
C     -2.016913057290      3.250638590265      1.409382570526
C     -1.798234409603      2.107165453477      2.147905833151
C     -1.126440247041      1.043032465420      1.585050010810
H      1.681209503482      0.567484149887      1.029511593506
H      5.573552553970      0.391973406562     -1.113985485097
H      4.832713115365     -1.226143779403     -1.303098380014
H      4.250022806486      0.139755683384     -2.291881245576
H      1.839299854851     -2.379641226411      0.960374820819
H      1.350691518852     -1.376836703310      2.342145345533
H     -0.270396490209     -2.125287010660     -0.919543370925
H     -2.587528866124     -1.769897424606      0.733854005804
H     -2.534885381095     -0.349492074998     -0.274887594410
H     -3.842908230909     -2.159338148061     -1.411136900398
H     -2.455578157776     -3.238983737369     -1.310681997059
H     -2.382254948475     -1.811289558702     -2.331655216487
H      0.268476404837      0.134902637703     -1.383346207412
H     -0.528067967539      2.321957379710     -1.462914267146
H     -1.728561258846      4.221209815489     -0.467422310640
H     -2.541082969393      4.084102106772      1.847475058040
H     -2.151606684071      2.044640933852      3.163950848377
H     -0.956161140843      0.144421819513      2.152322066129
