35
OptimizedStructure
C      1.539635172791     -0.548314962320      0.348836416137
C      2.841432273211     -0.279320828209     -0.367670979436
O      3.877975404911     -0.315578386427      0.260156196732
O      2.757075112168     -0.036243359193     -1.705855533056
C      4.033928127241      0.165002331997     -2.220215442146
C      1.173523837384     -2.052353090120      0.297382379608
O     -0.071973346472     -2.211082553222     -0.389946320117
C     -0.347797244963     -1.000237295475     -1.119183723453
C     -1.849045079467     -0.825894047517     -1.406040704643
C     -2.740120405174     -1.211374171427     -0.215544748348
C      0.337417445098      0.163509053206     -0.330465623409
C     -0.564481873904      0.884137194757      0.643729495008
C     -1.136671394630      2.096962741396      0.291174631565
C     -1.981307229824      2.757797257877      1.158097846684
C     -2.268420958322      2.213343730769      2.391337225474
C     -1.710319799384      1.006478460095      2.754073630532
C     -0.866385446898      0.347092420194      1.885282806477
H      1.647471537788     -0.201296308726      1.384684540878
H      3.965029068155      0.359597910991     -3.292393933322
H      4.491082158163      1.017835938272     -1.713034771473
H      4.633882590639     -0.730075028036     -2.039953342203
H      1.931912084565     -2.617520960027     -0.255295585670
H      1.076438486657     -2.499689787495      1.293270841481
H      0.192657856127     -1.123370684948     -2.073574002197
H     -2.032199744641      0.209504883473     -1.719106140582
H     -2.119956714665     -1.437871716599     -2.276282658468
H     -3.435137107325     -0.415808975324      0.063134410059
H     -2.134899490935     -1.439046690403      0.662424383318
H     -3.333396301177     -2.105974358355     -0.417934612719
H      0.732051647439      0.903344702054     -1.041597329311
H     -0.914803895612      2.521997897019     -0.672645986665
H     -2.416630757080      3.700863532844      0.871125626400
H     -2.927598211481      2.729570875324      3.069820494331
H     -1.934997287858      0.576525798026      3.716306401729
H     -0.445370512521     -0.602511524473      2.165904110806
