35
OptimizedStructure
C      1.256585458433     -0.545732814028      0.048863583936
C      2.594597300913     -0.066512069123     -0.468747791365
O      2.685295716043      1.028101672954     -0.981578976832
O      3.639907555447     -0.923919352595     -0.296303598342
C      4.796022663786     -0.353844548963     -0.818113182933
C      1.029043389292     -2.042697517871     -0.259007626201
O      0.062849728028     -2.164731088165     -1.302760968191
C     -0.749232315331     -0.972638916848     -1.338887609535
C     -2.147859707217     -1.239225592916     -0.761525526799
C     -2.121201839218     -2.015750566465      0.538165525823
C      0.074470275928      0.179241082213     -0.659620222603
C     -0.737566869310      1.135847722940      0.187564492861
C     -1.388994709940      2.187740321377     -0.439351292173
C     -2.165294390799      3.073148914945      0.277879205255
C     -2.306818075324      2.918551903797      1.639470300425
C     -1.670431663016      1.876706218212      2.278228595149
C     -0.893930801536      0.992449752912      1.558452366061
H      1.237223332180     -0.365115055728      1.129134685819
H      5.632803450589     -1.040844002188     -0.676203162152
H      4.646270280901     -0.160461812200     -1.882950920755
H      4.992091329386      0.588151691492     -0.300554086799
H      1.955709767049     -2.510832692527     -0.610673393594
H      0.675974245982     -2.605466426606      0.611915643140
H     -0.853256800625     -0.732413491228     -2.410405974985
H     -2.679174284446     -0.288656828408     -0.635357155456
H     -2.731730821521     -1.804034424719     -1.499295092148
H     -3.123920172441     -2.183245853145      0.936958157450
H     -1.547071099684     -1.497590558121      1.304445013155
H     -1.657467613583     -2.992850372859      0.395278062360
H      0.536722105919      0.784112743729     -1.455361583306
H     -1.281608308368      2.308718812824     -1.503772608455
H     -2.660317931584      3.886557270097     -0.226695335672
H     -2.911814580155      3.610092519805      2.202622601494
H     -1.779128728997      1.752913287897      3.343251710050
H     -0.408745886781      0.184230069510      2.074936165321
