35
OptimizedStructure
C      1.577736429873     -0.021477735031      0.536034149766
C      2.803652957542      0.053382088654     -0.341681891036
O      3.807718581411      0.580277573358      0.087486979118
O      2.695177507009     -0.514746635632     -1.575464205049
C      3.905321012471     -0.388387790027     -2.250096668724
C      1.492726799501     -1.379488680393      1.278682977755
O      0.329398296930     -2.082636124035      0.827723808824
C     -0.090948852634     -1.483439408494     -0.415258728377
C     -1.515759670917     -1.938597705165     -0.857792045563
C     -2.602963582134     -0.880217576242     -0.901703096726
C      0.261271102188      0.038880324577     -0.287410849682
C     -0.758178282462      0.883600208127      0.435711550500
C     -1.174461279829      2.098466948864     -0.087079889800
C     -2.075414422090      2.886032220805      0.598732827455
C     -2.564778727724      2.473631071654      1.820135776591
C     -2.149824810914      1.273336733632      2.356456595161
C     -1.249931885528      0.487464101431      1.668637966764
H      1.611816794060      0.814204823943      1.247837449638
H      3.817611225594     -0.844480033553     -3.238251615429
H      4.149295302553      0.672065326230     -2.347121579309
H      4.686392146567     -0.890267054366     -1.674219225047
H      2.366362478293     -2.001246895711      1.054553594337
H      1.427440278932     -1.265016875430      2.366858392647
H      0.631958278149     -1.907764975601     -1.136855720905
H     -1.446928165765     -2.411145202433     -1.847017475868
H     -1.820293863394     -2.751647589224     -0.187097853060
H     -3.541245379432     -1.276343637543     -1.295833496969
H     -2.312796625363     -0.042148739916     -1.536781850134
H     -2.819597063205     -0.485061742765      0.090324144152
H      0.460313503305      0.465976989367     -1.279670237781
H     -0.782734829331      2.425912797168     -1.034694192486
H     -2.393559521012      3.827181200539      0.181333132104
H     -3.267481362242      3.090164333578      2.356248261815
H     -2.527961805621      0.949204128757      3.311996120934
H     -0.929332564783     -0.455666469122      2.075276894386
