35
OptimizedStructure
C      0.819359457337     -0.969933973695     -0.167705993467
C      2.230239240901     -0.438555359775     -0.065417190590
O      2.635753492354      0.365730920976     -0.876600409340
O      2.970030787237     -0.937775874200      0.964918277778
C      4.246517850193     -0.386664497403      0.929087387636
C      0.761583724267     -2.284540462129     -0.970842779896
O     -0.367904167492     -2.254172106867     -1.852101495465
C     -1.126223666801     -1.036434644059     -1.645940851573
C     -2.445569843158     -1.411486327375     -0.956729799289
C     -2.272445169742     -1.894248969568      0.469530657647
C     -0.132030358354     -0.028553104820     -0.947566256201
C     -0.580493857933      1.185746721825     -0.142578791228
C     -1.869329174063      1.441069834643      0.300561768411
C     -2.163518410895      2.577575120327      1.026488806377
C     -1.173964417655      3.487408090907      1.326321497775
C      0.113088773028      3.254801002545      0.897387954695
C      0.398994970389      2.117714028500      0.173849837991
H      0.431122707767     -1.116129720951      0.847602733666
H      4.843947180665     -0.808092249707      1.740062044106
H      4.706811380517     -0.619064390711     -0.034095082235
H      4.171060424478      0.696818017619      1.044829034496
H      1.656827150235     -2.390410543939     -1.593136717314
H      0.688695346961     -3.171595736877     -0.331719686975
H     -1.351099119806     -0.662238817835     -2.657857024754
H     -3.166825467594     -0.591114043243     -1.023784461246
H     -2.902521360082     -2.215775733056     -1.547614008273
H     -3.222641716322     -2.189775097701      0.919170180633
H     -1.837846966899     -1.124131244771      1.107071304620
H     -1.609185158287     -2.759082505892      0.510523768790
H      0.486059612889      0.387646973920     -1.760110872003
H     -2.663831846305      0.756613023158      0.087637231777
H     -3.172746095713      2.754840803314      1.360674061647
H     -1.405203445285      4.374340551738      1.893161142527
H      0.895888346631      3.958537623541      1.128248052473
H      1.407399796539      1.930932691559     -0.153324323196
