35
OptimizedStructure
C      1.403831012832     -1.038625096569     -0.183515353416
C      2.711354754367     -0.678755725898     -0.861861838980
O      3.554862623274     -1.544609745199     -0.979086806635
O      2.868276432780      0.658842861824     -1.288435856691
C      3.120640390803      1.573236036286     -0.237877863649
C      1.018331400629     -2.517893249389     -0.433993108829
O     -0.209878955323     -2.573111663949     -1.161862226882
C     -0.892638220992     -1.311069186791     -1.023827817355
C     -1.975734883991     -1.412138281103      0.049343275798
C     -2.984427808816     -2.493962598029     -0.277494422081
C      0.207834603450     -0.230320285387     -0.760318311935
C     -0.237345214997      0.946510236480      0.078372416961
C     -0.563132981556      2.143011673300     -0.542424363536
C     -0.979172472316      3.232209319389      0.193634201060
C     -1.080868111993      3.139706041544      1.564799340116
C     -0.767721767350      1.955284080554      2.195922984712
C     -0.351093389716      0.867129612926      1.457981215161
H      1.512359680752     -0.849464615806      0.890554388002
H      4.037453778649      1.277221975672      0.273457765236
H      3.244622587070      2.569346062901     -0.663188534290
H      2.288260275427      1.576964007642      0.465353955733
H      1.784309490419     -3.014637033672     -1.041981816363
H      0.894714202422     -3.088295767698      0.493615884121
H     -1.373158760821     -1.122526856874     -1.996698559485
H     -1.492732687405     -1.629190931126      1.007790500178
H     -2.471461096335     -0.441825465789      0.171891284014
H     -3.739406354828     -2.604142022906      0.503568564897
H     -2.488497048856     -3.458133015764     -0.401247397547
H     -3.503756999096     -2.279648242265     -1.212792166557
H      0.544016441653      0.161458476889     -1.731611436373
H     -0.483235833346      2.217172567611     -1.613404865750
H     -1.224282148296      4.156186968878     -0.303808734127
H     -1.405540687486      3.990264825669      2.141434971505
H     -0.849306029800      1.878925954081      3.267755532045
H     -0.117476221209     -0.055120917431      1.959955200943
