35
OptimizedStructure
C      1.473944235581     -0.300369900510     -0.085889368255
C      2.433409753384     -0.349245978723     -1.253955741174
O      2.167285060569     -1.091605019995     -2.176905587368
O      3.585081332130      0.466272498790     -1.172502344999
C      4.608776036301     -0.067676908930     -0.354582230105
C      1.476142986650     -1.624292332870      0.717523652437
O      0.151266480508     -2.160370416866      0.734502184878
C     -0.571835848082     -1.586964291176     -0.373238825246
C     -2.088414035249     -1.671400096496     -0.184875312656
C     -2.862999290047     -1.201492787888     -1.402663720140
C      0.007019596440     -0.149801738322     -0.572111836089
C     -0.729664522874      0.918989384083      0.196339602567
C     -1.221868435056      2.045521933835     -0.444251398594
C     -1.882182653482      3.025206934656      0.267317670947
C     -2.054739043660      2.892992598543      1.628932908015
C     -1.564040090073      1.780366108480      2.278467584464
C     -0.904557278571      0.802252899992      1.565025499532
H      1.738421559474      0.551109609103      0.554762384672
H      4.258566811918     -0.146712053760      0.674830419145
H      4.884837211801     -1.053250990633     -0.731744210348
H      5.472998959095      0.595558306204     -0.398142279983
H      2.121894277537     -2.366770233293      0.235622579901
H      1.813234325918     -1.495397321189      1.752545411578
H     -0.285894539780     -2.204219931349     -1.241252237714
H     -2.351498094955     -2.707144029755      0.060535081924
H     -2.368342488923     -1.089728485087      0.699116499786
H     -3.942007584044     -1.282555111624     -1.257591758445
H     -2.604181862527     -1.789242731591     -2.284686947282
H     -2.641890281807     -0.159078612899     -1.635212053776
H      0.009378804298      0.107309833759     -1.640693245883
H     -1.078925592568      2.152911752878     -1.505734901003
H     -2.260791980339      3.896510880502     -0.241332192952
H     -2.569910579776      3.659153420279      2.184760890694
H     -1.695589050166      1.674688190596      3.342739654407
H     -0.522924179623     -0.071525378745      2.064344167065
