35
OptimizedStructure
C      1.462364119350     -0.017538062122      0.327978035534
C      2.572587218096     -0.119756904284     -0.693218630034
O      2.402599180130      0.321512686759     -1.809565604133
O      3.725632161360     -0.706275617655     -0.263963774315
C      4.650964912236     -0.723248786647     -1.302162318564
C      1.360910023722     -1.287801766778      1.210526332670
O      0.071696632016     -1.883782800683      1.031964714597
C     -0.506330936092     -1.356508985979     -0.179778498801
C     -2.052402368974     -1.472139230174     -0.193327252090
C     -2.569830925079     -2.307202905172     -1.350890294138
C      0.067526353066      0.086430768999     -0.345936616727
C     -0.777480956999      1.159122956883      0.294152275415
C     -1.111225297694      2.310611143773     -0.401464471409
C     -1.866582900155      3.297428317352      0.196780601079
C     -2.293341437751      3.147109111814      1.499404932353
C     -1.961415225064      2.009506699824      2.204057139848
C     -1.206144476480      1.024646048697      1.603934983257
H      1.638374554584      0.873897031980      0.944398616711
H      5.575488276726     -1.188188381672     -0.953842025275
H      4.237364970869     -1.292507568103     -2.137799337393
H      4.845249573508      0.303376601960     -1.621275646324
H      2.113372134105     -2.026823290687      0.914014358447
H      1.496932514753     -1.074248274108      2.276885376794
H     -0.094552881761     -1.995050169030     -0.978528537915
H     -2.370831503636     -1.906925305580      0.761830003002
H     -2.500421488080     -0.472142870676     -0.219163606165
H     -3.658707877728     -2.386569875886     -1.344748827284
H     -2.166319800246     -3.320353754178     -1.315774094014
H     -2.276622755637     -1.875427557917     -2.309156123379
H      0.198426679771      0.318244124818     -1.412432015117
H     -0.768108497303      2.431350891146     -1.414584330256
H     -2.120452750130      4.188366281880     -0.353677586191
H     -2.882769183160      3.918772848148      1.966790782108
H     -2.291028759075      1.889992302278      3.222978644971
H     -0.944919283250      0.132124291020      2.145592792736
