35
OptimizedStructure
C      1.569208259143     -0.738074840953      0.256620820300
C      2.787059197403     -0.773770334199     -0.644269532293
O      3.600424466703     -1.661667819885     -0.486470612525
O      2.901274487921      0.267958756389     -1.593538834288
C      3.387303531981      1.481296575471     -1.051522368533
C      1.151968009549     -2.151640912908      0.732885849426
O     -0.218441878929     -2.375632148658      0.391141893431
C     -0.564976062396     -1.475808075192     -0.678364848533
C     -2.071448552861     -1.226956411463     -0.745610142619
C     -2.839984138610     -2.515363617745     -0.955756700182
C      0.314898628764     -0.199085588143     -0.487266418993
C     -0.366154078411      0.903611288931      0.283987749494
C     -0.553706866393      2.154924467914     -0.282202277731
C     -1.168872357586      3.162727097975      0.430497769071
C     -1.603529336264      2.932121861444      1.718566085039
C     -1.422363440769      1.691921845368      2.292815369375
C     -0.807244232052      0.685783758249      1.578542751570
H      1.791258938850     -0.093769575763      1.117043800035
H      3.508004025303      2.203415782550     -1.859301570892
H      2.681888467330      1.868154687522     -0.315619225218
H      4.353098627443      1.294743340287     -0.580053269623
H      1.750818778461     -2.917896824319      0.226691458723
H      1.268602747622     -2.288789559014      1.814160748941
H     -0.249882572284     -1.996639863167     -1.596997223068
H     -2.389815555869     -0.749623338232      0.186832168479
H     -2.290740904993     -0.505008892781     -1.541331201084
H     -3.919920994780     -2.354795954070     -0.966893224344
H     -2.616630137698     -3.230390155328     -0.162206355601
H     -2.565518042195     -2.989166653434     -1.899484037501
H      0.620068161273      0.189687654870     -1.468827345435
H     -0.211096740426      2.335331065967     -1.286560995247
H     -1.308845344507      4.131743654813     -0.019666673453
H     -2.083859527456      3.719847525420      2.275449338634
H     -1.761957133133      1.508137261717      3.298825742881
H     -0.670888430133     -0.287326059633      2.017881311762
