35
OptimizedStructure
C      1.137313777749     -0.889260322102      0.355981869821
C      2.514634418346     -0.509545826311     -0.130307091087
O      2.977196573798     -1.054599523975     -1.108814864365
O      3.134915827989      0.481136476463      0.572848870700
C      4.378394683486      0.739755490201      0.005984052263
C      0.806551992043     -2.373597186237      0.105682648474
O     -0.525342018848     -2.460895877200     -0.389176156944
C     -0.818699051048     -1.232241240003     -1.080649166005
C     -2.326776416000     -1.072053972622     -1.262276547045
C     -2.891223975814     -2.151785687010     -2.165500348743
C      0.031421827803     -0.084579575014     -0.395947774775
C     -0.561301811887      0.981145236165      0.523034805962
C     -1.909444064561      1.221840849655      0.746049304399
C     -2.327184363274      2.238341361951      1.581423075660
C     -1.406449913804      3.045902068412      2.210612079592
C     -0.063668614129      2.833661635205      1.997795912700
C      0.346143095760      1.817103850587      1.162969808799
H      1.069692305889     -0.674280985124      1.430265409591
H      4.875950053843      1.530861853390      0.570551443390
H      4.977917187520     -0.173070674234      0.033914412161
H      4.238919920120      1.051547039120     -1.031663219055
H      1.473051821336     -2.789613872735     -0.659042916571
H      0.890347229097     -2.990571856456      1.008208608387
H     -0.389848813763     -1.393751829062     -2.084615442408
H     -2.799732201798     -1.149816886102     -0.278107382862
H     -2.552695871111     -0.078623080000     -1.667412430296
H     -3.976142478719     -2.079806877486     -2.265750447456
H     -2.657925136515     -3.143349551185     -1.773937290211
H     -2.462819651712     -2.094305187481     -3.167365340230
H      0.526779000044      0.473211091129     -1.204839310006
H     -2.660047386168      0.630366401666      0.265179668296
H     -3.380327668298      2.403483941565      1.740677703034
H     -1.734489825972      3.838707051124      2.862765402966
H      0.666383877186      3.459680335720      2.484108185274
H      1.398505671412      1.649005327986      1.007352466589
