35
OptimizedStructure
C      1.523958571999     -0.562897206198      0.185443115188
C      2.740856314287     -0.387569965610     -0.694283134717
O      3.571825189534     -1.268275376114     -0.752656239766
O      2.824378159288      0.795052113066     -1.367332416526
C      3.993615979570      0.816371921671     -2.120622263007
C      1.150383798716     -2.055211724199      0.369591227729
O     -0.186488339987     -2.266285008010     -0.094828639860
C     -0.543931347897     -1.170931982777     -0.961547963391
C     -2.080348464000     -0.970024871108     -1.082609975641
C     -2.865880578304     -1.913782128528     -0.194604795434
C      0.252949011262      0.070651679876     -0.444273841589
C     -0.506904052817      0.912221688910      0.550703529358
C     -0.757734198257      2.252769281702      0.302269420323
C     -1.453539371277      3.017804361416      1.214830485506
C     -1.906088167284      2.452451292025      2.388182131850
C     -1.660415647777      1.121061417630      2.648126357786
C     -0.964707070966      0.358466006218      1.734248444802
H      1.727559002744     -0.090347165325      1.155300704631
H      4.061835214566      1.765717196296     -2.655642469028
H      4.849018803779      0.701855295404     -1.450731269451
H      3.974178861791     -0.013414438417     -2.830926460313
H      1.813754713620     -2.692668180480     -0.226378138961
H      1.211623162261     -2.383457613408      1.413510767033
H     -0.134542759607     -1.464493094317     -1.943159704852
H     -2.332291625164      0.070053515060     -0.843368007731
H     -2.392900053374     -1.097479321104     -2.127428979799
H     -3.944722174145     -1.779268725924     -0.296497682030
H     -2.610131078814     -1.768615112291      0.855263571880
H     -2.632468331193     -2.952142428011     -0.434470922899
H      0.549998177426      0.703155593069     -1.292414618228
H     -0.399542034352      2.694874175987     -0.611443977630
H     -1.641740322612      4.059124289303      1.011214658046
H     -2.448941005679      3.050588893008      3.101541579234
H     -2.011350102537      0.676309052507      3.564743632102
H     -0.771268234801     -0.681663431326      1.930251875388
