35
OptimizedStructure
C      1.636552121928      0.096441297448      0.553270884372
C      2.911967557133      0.566477731422     -0.116890587902
O      3.108625567358      1.765001662575     -0.140063215665
O      3.777152177420     -0.394383145515     -0.682666043097
C      3.298918691515     -0.985014618380     -1.877353445496
C      1.583451985611     -1.429134413061      0.764433174718
O      0.798415618157     -1.995640412071     -0.282730230914
C     -0.149202458206     -1.006830235843     -0.745546290866
C     -1.553724444854     -1.345044546661     -0.247484763942
C     -1.998577343463     -2.714462154702     -0.717945641597
C      0.390525228920      0.407632927820     -0.320619645690
C     -0.624798087869      1.294890159112      0.362175432577
C     -1.239624139698      2.315012034750     -0.347587212090
C     -2.182949570043      3.123210639996      0.251197459339
C     -2.528993001595      2.919830298234      1.569699758508
C     -1.930497565683      1.906031987722      2.286341772556
C     -0.986960547036      1.099161279509      1.685827570942
H      1.562845645218      0.624856364051      1.512674687777
H      4.094739491531     -1.594644689944     -2.305733229360
H      2.434764045838     -1.613155955849     -1.663255151343
H      3.024926327179     -0.197061768298     -2.579733658898
H      2.584518318707     -1.873385258193      0.724752167841
H      1.123192568314     -1.706294070481      1.719606493440
H     -0.141253304231     -1.086503272219     -1.843900893982
H     -1.551540327534     -1.309428445174      0.846767818859
H     -2.260111633510     -0.572222364379     -0.573367013953
H     -2.984778224844     -2.982596409099     -0.333590186632
H     -1.293665656065     -3.481291330365     -0.392547508635
H     -2.043164964249     -2.762514594626     -1.807037594508
H      0.748494388131      0.938766605979     -1.214409139441
H     -0.969493157123      2.475351922686     -1.377221977112
H     -2.647936497134      3.915789806828     -0.311732640590
H     -3.264467826980      3.552321788413      2.039185472661
H     -2.199314696906      1.744094895167      3.317262784436
H     -0.528036285936      0.304736283146      2.248220593686
