35
OptimizedStructure
C      1.199505606084     -0.759880983178      0.594634158960
C      2.560314148506     -0.114838449278      0.496946784231
O      3.085800863560      0.318213498134      1.499630823500
O      3.106241397667     -0.075741312873     -0.752141023914
C      4.364546024272      0.538514055755     -0.730496023865
C      1.229008547407     -2.261856901045      0.252461515417
O      0.039843393584     -2.603909299800     -0.473093831394
C     -0.717327708543     -1.403789586912     -0.768106704827
C     -2.045576797953     -1.425074522842     -0.013606243675
C     -2.868903976338     -2.646740311883     -0.365539335063
C      0.199648616900     -0.181116619250     -0.435415504024
C     -0.525934161154      1.078219014882     -0.014422770736
C     -0.789527047391      2.056116279433     -0.961802024665
C     -1.466852728728      3.208267941243     -0.622499009099
C     -1.897262171343      3.398840572806      0.672501575972
C     -1.650832717097      2.433010514622      1.623993500919
C     -0.973339656999      1.281128412684      1.282365484061
H      0.822438920238     -0.615417790938      1.612880570357
H      5.111477707678     -0.170006542159     -1.093652694471
H      4.343570828585      1.414341232195     -1.381814340943
H      4.620072017844      0.847352168640      0.286375990463
H      2.084850167059     -2.490743963516     -0.391673648980
H      1.292010923362     -2.898349316187      1.142431438538
H     -0.919748262977     -1.434994883302     -1.849734548626
H     -1.830499288178     -1.414559132908      1.060279834098
H     -2.606282572494     -0.505452636952     -0.219066532186
H     -3.801832024595     -2.692720645884      0.199926320597
H     -2.308628552712     -3.560446780063     -0.160494544027
H     -3.123152644757     -2.658957268182     -1.426496112699
H      0.791420627266      0.063082402554     -1.330049220083
H     -0.456322939851      1.907865073426     -1.974694497715
H     -1.658511180201      3.960251583449     -1.370210068774
H     -2.424771595330      4.299659968176      0.940166579619
H     -1.987412543241      2.578236181528      2.637400572215
H     -0.798031220132      0.531498047626      2.033013530820
