35
OptimizedStructure
C      1.062950458329     -0.918650410128      0.486437960604
C      2.352302304189     -0.143398536674      0.606909481441
O      2.465780919203      0.668153287448      1.501421189544
O      3.300902373939     -0.400056803836     -0.335442546113
C      4.413852372485      0.401022189724     -0.101751106547
C      1.272933286955     -2.396113226847      0.086249365846
O      0.292815443554     -2.758103579394     -0.895700249311
C     -0.659078336237     -1.673270989010     -1.038406298214
C     -1.930495732444     -2.064362019573     -0.214634673558
C     -2.470342523265     -1.065096871598      0.794711510942
C      0.140341316570     -0.382423169351     -0.636080264774
C     -0.647112484951      0.876902818554     -0.350012484478
C     -1.678196446594      1.258849739177     -1.195127526935
C     -2.383934111739      2.422135501458     -0.969394240196
C     -2.054538033062      3.233904660790      0.094742389812
C     -1.007140804117      2.888055434953      0.920998656709
C     -0.303374759817      1.725082978089      0.692073699132
H      0.536074037798     -0.861058399902      1.446649143236
H      5.176114196097      0.186861439271     -0.853666918699
H      4.115372429311      1.450269079410     -0.159782405552
H      4.802328073588      0.187173969279      0.896703046408
H      2.259210103593     -2.531492265914     -0.371351643121
H      1.192020645209     -3.083895518172      0.935486813675
H     -0.906340579525     -1.623960766986     -2.110567562682
H     -2.731774326075     -2.364539348522     -0.901983810475
H     -1.674558072091     -2.990624873514      0.316134343161
H     -3.284114899296     -1.487809966120      1.387781755554
H     -2.867006148738     -0.174881012206      0.307818626780
H     -1.698505055796     -0.742999988553      1.493596046584
H      0.807951659491     -0.135004083741     -1.475731385385
H     -1.927735995080      0.632333090839     -2.034088677665
H     -3.191034824751      2.698272382585     -1.627846022966
H     -2.604449896129      4.143741785984      0.271208345175
H     -0.728385109022      3.533211857851      1.737951076484
H      0.557168518418      1.491771614630      1.294694365582
