35
OptimizedStructure
C      1.279665549696     -1.019800396763     -0.065329569669
C      2.579531922410     -0.299654464251     -0.315332312199
O      3.063685982688     -0.309257593959     -1.425627186029
O      3.111979838658      0.344356213624      0.762970322340
C      4.294398585554      0.971948067105      0.385952258887
C      1.267049907757     -2.458227946196     -0.617835621183
O     -0.034242473364     -2.739546968107     -1.148329218292
C     -0.880965614742     -1.573759172797     -0.985994846114
C     -1.860451697844     -1.817778892486      0.191508432556
C     -3.311454300066     -1.507631127790     -0.134357859753
C      0.081668913513     -0.353309935405     -0.785799567887
C     -0.512193247078      0.858430240073     -0.101655961086
C     -1.685083797194      1.415904265823     -0.585503309075
C     -2.242905036544      2.525769196456      0.013538882177
C     -1.622770528215      3.109444206045      1.097097094250
C     -0.434753817758      2.591650793327      1.565890027265
C      0.120227947046      1.482132424755      0.964115657910
H      1.086789065331     -1.038710512232      1.014743879927
H      4.722475395418      1.485223692945      1.249374848016
H      4.992978291583      0.218747303714      0.014111739836
H      4.078050008328      1.690830652477     -0.407746188704
H      1.985165781822     -2.554584398882     -1.440197730375
H      1.509688556445     -3.210295439706      0.141509934008
H     -1.442589096614     -1.472750641665     -1.927014223875
H     -1.766606639784     -2.870468202571      0.486125889579
H     -1.527298979543     -1.248882593329      1.067320028236
H     -3.974697341678     -1.740257677388      0.701146464052
H     -3.653293769202     -2.086069166327     -0.993993849887
H     -3.454760645488     -0.454840143494     -0.375668924521
H      0.447347198536     -0.026685589224     -1.770215264819
H     -2.149747684363      0.982368170920     -1.454249635895
H     -3.160469889505      2.940631162103     -0.370162895300
H     -2.056483729098      3.977690634869      1.565506925395
H      0.067942559851      3.061591945203      2.395240603552
H      1.082122783445      1.125791893134      1.288861176677
