35
OptimizedStructure
C      1.080068073102     -0.830293523430     -0.033359342437
C      2.387101875458     -0.168983318996     -0.405956606329
O      3.392753772702     -0.491808333618      0.189305316913
O      2.352778298135      0.747024898081     -1.415291506680
C      3.639947792224      1.216670784156     -1.659078137472
C      0.951704602940     -2.227367056037     -0.678808826585
O     -0.323371358449     -2.333218136988     -1.317669264243
C     -1.170124742670     -1.246259571761     -0.875010826128
C     -2.073464220882     -1.769449611103      0.252825757473
C     -2.554556109560     -3.180367777035     -0.023792395596
C     -0.175479946955     -0.069602417016     -0.533989534062
C     -0.546696165429      1.112882910653      0.352163934074
C      0.355085436086      2.167461611609      0.395720486846
C      0.128897144194      3.285331971445      1.168683659755
C     -1.018682859997      3.374583817740      1.923448114626
C     -1.930101714987      2.342354680650      1.896213712407
C     -1.696010318429      1.225518715984      1.119507693182
H      1.032421637952     -0.905491311272      1.060698613924
H      4.033416539777      1.672171553797     -0.747477479168
H      4.274521712763      0.375607653052     -1.947683343457
H      3.609452352433      1.954416924750     -2.463366107840
H      1.718948931440     -2.368245186694     -1.447969631593
H      1.047937881792     -3.041312026169      0.048732792445
H     -1.789567911020     -0.979892257021     -1.745142220883
H     -1.513514161726     -1.742797270335      1.194428684459
H     -2.943585578263     -1.118108752045      0.380450680266
H     -3.177715210464     -3.571944067140      0.782920879552
H     -1.709364898719     -3.858308188496     -0.151716928157
H     -3.136345683547     -3.222979483571     -0.945776014328
H      0.111160131103      0.370905335758     -1.501676955164
H      1.254372705860      2.095826630129     -0.190322040337
H      0.849884671123      4.086122546521      1.183699464415
H     -1.202278843468      4.245437956337      2.531179395918
H     -2.830673501264      2.407876755883      2.484711121281
H     -2.428920333255      0.446233542184      1.119396852920
