35
OptimizedStructure
C      1.223289918139     -0.840766963191      0.387115902158
C      2.638847787142     -0.319593732369      0.516317525287
O      3.276788407098     -0.670889960884      1.488547855187
O      3.119492626898      0.537583656203     -0.498658201354
C      3.502868084641     -0.119335958915     -1.693243886368
C      1.118229533168     -2.142995828531     -0.439839507591
O      0.085352534317     -1.987398623116     -1.419072215075
C     -0.687738857567     -0.808909148907     -1.099413395373
C     -1.926355056934     -1.215122030129     -0.297501998019
C     -2.763193721914     -2.233784661989     -1.043000166094
C      0.281452653592      0.155153726558     -0.337389398828
C     -0.368815562985      1.193048460945      0.551610269260
C     -1.447137370557      1.931387530393      0.088472620564
C     -2.025967055523      2.908303950247      0.871133298833
C     -1.521320795429      3.176904022644      2.125101587325
C     -0.428780909412      2.475566505363      2.587281924448
C      0.147201727626      1.498542654517      1.803054592218
H      0.834964299543     -1.023602928187      1.397242903022
H      4.182266665399     -0.936630961045     -1.448092191192
H      2.622081814396     -0.502563951302     -2.208807162998
H      4.015138278767      0.598016308632     -2.334728196903
H      2.054359453350     -2.358667809246     -0.963618740783
H      0.876520735752     -3.015527910879      0.177973849950
H     -0.994668151280     -0.368470574858     -2.060097990111
H     -1.593696085873     -1.629118222480      0.660731429108
H     -2.525403139007     -0.333157533024     -0.046055701357
H     -3.626681137501     -2.563920931839     -0.461943431002
H     -2.168610123837     -3.115418229132     -1.287894394437
H     -3.133111852674     -1.826327196450     -1.985099846725
H      0.887143442998      0.699660860553     -1.074954590918
H     -1.825258942308      1.743505692925     -0.901760728442
H     -2.869101292938      3.466789791112      0.498969032227
H     -1.971065078740      3.941764009184      2.736750976330
H     -0.017421872823      2.697347432964      3.558380622519
H      1.028329044472      0.988628554232      2.152487355132
