35
OptimizedStructure
C      1.131286406249     -1.086056214251      0.210771754914
C      2.497739387566     -0.447189485433      0.304205141472
O      3.269614144770     -0.843473366765      1.150944314910
O      2.784409327524      0.534181385080     -0.597986432565
C      4.089467843942      0.975965743981     -0.402298050198
C      1.174549342899     -2.409168319219     -0.586915289113
O      0.125708302611     -2.406755861150     -1.560784384035
C     -0.787382415779     -1.320205744902     -1.270812859339
C     -1.992047888966     -1.908520111686     -0.497074931110
C     -3.338638335547     -1.473109586333     -1.058100120078
C      0.094197022043     -0.227770669571     -0.555088570575
C     -0.490874718439      0.904531408106      0.278047594644
C     -1.777749122879      0.953664759272      0.791671945247
C     -2.204288560878      2.026665951175      1.547774218877
C     -1.350263069457      3.074429677996      1.812267500193
C     -0.065081744904      3.042661854776      1.320038722233
C      0.353416970558      1.968263745999      0.565687222882
H      0.761345712429     -1.260914158198      1.229280949619
H      4.316209677511      1.764705247272     -1.122427727344
H      4.188546914211      1.358327919364      0.616213999703
H      4.772247954535      0.134742082591     -0.542288536939
H      2.123971583152     -2.503345340895     -1.125236906904
H      1.057157121007     -3.292867161267      0.050609061992
H     -1.129559051727     -0.946198141149     -2.247970360370
H     -1.916562209986     -3.002010005372     -0.556214484188
H     -1.891227004673     -1.695947512808      0.572627036250
H     -4.171391364377     -1.841006339133     -0.455620824163
H     -3.478686008168     -1.850323013234     -2.072514114581
H     -3.424807722714     -0.387701207572     -1.116640420638
H      0.660693080183      0.268380436264     -1.359075413589
H     -2.465880175439      0.153592348556      0.611922151901
H     -3.209835634276      2.044501647571      1.935311663626
H     -1.684110553114      3.910936212419      2.404069862561
H      0.613895682899      3.853237995322      1.528038358300
H      1.363929107234      1.933773823193      0.197567926408
