35
OptimizedStructure
C      0.977117029854     -0.969340235961     -0.249339240346
C      2.384325080489     -0.438470782363     -0.357178879616
O      2.925577573253     -0.400588836662     -1.440275808086
O      2.945244956372     -0.007588187534      0.809503971159
C      4.230163765236      0.461052811857      0.556787623254
C      0.782970347520     -2.299500555565     -1.002165911711
O     -0.511481640606     -2.302408112305     -1.618015860918
C     -1.177735944000     -1.045201394646     -1.346122615282
C     -2.308522579417     -1.241709359173     -0.294847070446
C     -2.371577175709     -2.655502762871      0.246799985009
C     -0.062274197162     -0.032789010635     -0.911633546391
C     -0.518287228146      1.139903598146     -0.069580675097
C     -1.684865178184      1.819117536514     -0.386224889077
C     -2.096263777721      2.905552363472      0.357023991963
C     -1.336205778412      3.341983179917      1.420665785959
C     -0.158348522662      2.696965880353      1.729876949312
C      0.249446182443      1.611270211157      0.984861942719
H      0.723721955022     -1.095981980115      0.810894212484
H      4.680197676727      0.804306740430      1.490489691152
H      4.825915454993     -0.349290829881      0.130271089647
H      4.174318622843      1.285945443738     -0.157298683414
H      1.525836861523     -2.391483848380     -1.802789607019
H      0.871263152499     -3.176604384107     -0.351281292130
H     -1.607196463629     -0.728968439192     -2.310351329717
H     -2.163619492742     -0.539913042927      0.534830682966
H     -3.277613370409     -0.967333454406     -0.731693303696
H     -3.188094739286     -2.792157024764      0.958918872997
H     -1.442406322688     -2.922534452785      0.751550576400
H     -2.509047890197     -3.372798795124     -0.563603286860
H      0.412924201031      0.378877283769     -1.813984666483
H     -2.270640657070      1.491551967801     -1.227745946001
H     -3.010441632241      3.416375699767      0.102853370864
H     -1.655936582572      4.191704142607      2.001289618276
H      0.449211872061      3.046467264483      2.548442130183
H      1.192324440990      1.139091365387      1.199072117946
