22
OptimizedStructure
C     -3.489711616881     -0.523520380203      0.081367204313
C     -2.181051088127      0.157837881792      0.262637241547
C      0.247301424713      0.179272423869     -0.136699349508
C      0.251461528761      1.379502111112     -1.061565933047
C      1.308189657509     -0.817895447979     -0.533776991050
C      2.852541673133      0.004868279715      1.251026929862
N     -1.039370857000     -0.488405800800     -0.158773582210
N      2.529492201774     -0.825297447301      0.103733608030
O      1.042621741927     -1.587306712167     -1.435010187520
O     -2.132378847413      1.264912700352      0.761126459034
H     -1.062332071750     -1.324418597679     -0.753184734212
H      3.204949260567     -1.549042945283     -0.142647007333
H      3.904608979548     -0.087625911209      1.519746885331
H      2.252079766405     -0.292301238473      2.109691957355
H      2.654556568776      1.051558393129      1.026549808737
H      0.407535623655      0.500502561983      0.902407323991
H     -0.537828625849      2.079896282185     -0.784738755219
H      0.069033198480      1.056448281856     -2.086057587376
H      1.207524936513      1.902758578882     -1.039201809072
H     -4.079910136377     -0.013793781348     -0.678798524845
H     -4.052496342931     -0.506572185711      1.013578535439
H     -3.356816975433     -1.561377046721     -0.221411492249
