22
OptimizedStructure
C     -2.406243927329     -1.234581168403     -0.633072920462
C     -1.335316272337     -0.201527479938     -0.617532346670
C      0.385876472762      1.032219051072      0.690526252053
C     -0.194691807421      2.364351763739      0.253651713705
C      1.671071510141      0.754456441776     -0.070931234941
C      1.503339918402     -1.728127567006      0.247686673646
N     -0.612581289693     -0.034059996690      0.543372270428
N      2.146446115533     -0.527609232545     -0.248124740972
O      2.301906689351      1.704987479135     -0.493447595092
O     -1.138315277037      0.467696077948     -1.611363549655
H     -0.900812532586     -0.505817557404      1.403709888141
H      2.994541473194     -0.660067645674     -0.800964616742
H      0.610916556178     -1.936184380352     -0.339991855224
H      1.217791360863     -1.594599245534      1.289418309339
H      2.167955856147     -2.589533826716      0.184682408548
H      0.659139422091      1.094882356130      1.756130159191
H     -1.099016159297      2.610927462448      0.809865722122
H     -0.451780899559      2.309878492488     -0.805104270959
H      0.531758796976      3.168806660460      0.375062504077
H     -2.349549425529     -1.880745486988      0.241861925106
H     -2.315345010700     -1.853532495194     -1.524493397797
H     -3.387091570152     -0.761819702755     -0.650941297841
