22
OptimizedStructure
C     -1.740319202962     -0.033081107235      2.118899892952
C     -2.146078279953     -0.759427580081      0.884211012735
C     -0.164133885120      0.148039931583     -0.404266052582
C     -0.516356209654      1.550641836698     -0.859942768786
C      0.707360435491     -0.528205593736     -1.434515623472
C      2.756554141325     -0.243552457187     -0.031830559961
N     -1.366266308432     -0.670085981475     -0.249337085327
N      2.067940562755     -0.637973017239     -1.247975114700
O      0.154880004085     -0.951383154915     -2.429456566494
O     -3.155124256092     -1.438414378943      0.893014044806
H     -1.614532531747     -1.194272378586     -1.090322657359
H      2.613618153378     -1.159072466247     -1.934664440034
H      2.533142481814      0.794790682786      0.207297708746
H      3.836560871379     -0.337521699673     -0.143634442323
H      2.442058954002     -0.874679435620      0.798180702310
H      0.358171839687      0.169341312055      0.561004433487
H      0.374599713476      2.166531000664     -0.984349962997
H     -1.185849162168      2.046546404037     -0.157855940554
H     -1.024260120004      1.503616862699     -1.823174088955
H     -1.487879916340      1.004566518611      1.907587775322
H     -0.882695242368     -0.515419763316      2.586228798422
H     -2.561392042553     -0.040985534879      2.834900934765
