22
OptimizedStructure
C     -1.937599841865     -1.299234892149      1.135495610102
C     -1.790956132646     -0.653167902742     -0.198110104826
C     -0.112751015328      1.041641745823      0.542551646046
C      0.104477665988      2.540606784231      0.483603466659
C      1.135191238188      0.304937929627      0.106193741158
C      2.164498683338     -1.444502603597     -1.253140397069
N     -1.258879147306      0.630804295777     -0.284372506667
N      1.031912072967     -0.630911014728     -0.897524293011
O      2.191682213276      0.554358106219      0.650280730396
O     -2.086068411340     -1.268629828324     -1.206498729156
H     -1.166767434120      1.015415319278     -1.220856130748
H      0.101796183375     -0.946805226868     -1.228812581233
H      2.192821642541     -1.623542161998     -2.327796583236
H      2.126222123758     -2.398699930076     -0.728526264733
H      3.077118689468     -0.925793548908     -0.959438179421
H     -0.328581778329      0.745742983377      1.578958401567
H      0.949187400643      2.836382690447      1.107018198201
H     -0.781205474512      3.083599356894      0.813909814342
H      0.326257014398      2.850303682165     -0.537064108806
H     -2.227368996647     -0.572648339016      1.893343136039
H     -1.004148835576     -1.770898115338      1.440029913498
H     -2.706837860269     -2.068959330093      1.090755220898
