22
OptimizedStructure
C     -2.589399273497      0.901151965047      1.358462474446
C     -2.354317255349     -0.494811719853      0.897263567671
C     -0.222612619864      0.169551751988     -0.297249530645
C     -0.612848315238      0.767943516858     -1.634587460228
C      1.083222942666     -0.572566093003     -0.419611786428
C      3.469817761535     -0.732918623129      0.054823207309
N     -1.225673930594     -0.790085258495      0.162399542025
N      2.234330642601      0.006456298158      0.058435354559
O      1.071064370303     -1.662694216362     -0.951143042275
O     -3.153468903251     -1.364729597198      1.187191598334
H     -1.036047981476     -1.748771805168     -0.130960884453
H      2.208178177742      0.871898355344      0.605334930301
H      3.392228196265     -1.543866620606     -0.669704500157
H      3.655884808967     -1.167432170540      1.036594987332
H      4.307975134982     -0.094482123267     -0.223556740592
H     -0.116034519548      0.952714296746      0.466332451612
H      0.134010248605      1.480007192629     -1.986511175901
H     -1.576916801672      1.273000678294     -1.584011930825
H     -0.693678912040     -0.024046392907     -2.378910274957
H     -1.903413813560      1.162448331332      2.163261032784
H     -3.605649990187      0.995208001438      1.739466778838
H     -2.466649967391      1.616024232694      0.546681401253
