22
OptimizedStructure
C     -3.569172601335     -0.685429848404      0.062791552059
C     -2.375926520443      0.129115595371      0.412978058973
C      0.051643120975      0.491743001029      0.203478060264
C     -0.054914655986      1.796431232473     -0.559520050118
C      1.250356098200     -0.305113865482     -0.243709827771
C      3.557028536007     -1.012635772184      0.128971795795
N     -1.134901364217     -0.320959842997      0.017314448339
N      2.418187080538     -0.201366760072      0.473018260128
O      1.147153760668     -1.001404546683     -1.231761412085
O     -2.506589619424      1.171781116352      1.023068878831
H     -1.012111815665     -1.080321663975     -0.661341382988
H      2.458765668470      0.315993054080      1.355858220695
H      3.431110550632     -1.383875532856     -0.888152734855
H      3.631986511269     -1.867935632346      0.799766024599
H      4.478986142215     -0.433635690232      0.177209301850
H      0.130798558772      0.689888085849      1.283066079358
H      0.824087420182      2.423382878002     -0.408241550404
H     -0.939777061489      2.352390397554     -0.246291050177
H     -0.145837277677      1.594809895308     -1.626376745083
H     -3.281548352596     -1.659154058292     -0.331637463152
H     -4.171363394773     -0.172653632133     -0.685806617681
H     -4.187960784323     -0.841048410364      0.945318153422
