22
OptimizedStructure
C     -2.914062313595     -0.429625625998     -1.031251717219
C     -1.941200867828      0.199738270379     -0.097663450718
C      0.195193289155      0.002544156372      1.138237688904
C      0.446049442657      1.498793432596      1.166346785426
C      1.491928224235     -0.775905320631      1.076972829271
C      1.894529240774     -0.148196712729     -1.319547715984
N     -0.714427036215     -0.408276524867      0.071811190375
N      2.185870012711     -0.896532643780     -0.108635572468
O      1.902386921552     -1.280354323217      2.104805944742
O     -2.249155006260      1.215302904168      0.493078054827
H     -0.560749153375     -1.361604256145     -0.261033797436
H      3.093406878365     -1.362142898188     -0.088657873639
H      2.169888537549     -0.724373977726     -2.202425524944
H      2.451847250189      0.787566001318     -1.328506549442
H      0.833997133803      0.081070459199     -1.389164816378
H     -0.301375445929     -0.288461259448      2.078906970877
H      1.093151518183      1.775905576870      1.999209153451
H     -0.493591450632      2.044972724140      1.260097523015
H      0.924921110546      1.828784227102      0.246650673557
H     -2.447808747936     -1.220064358791     -1.617865581204
H     -3.313088324487      0.317487884175     -1.715766444916
H     -3.747711213461     -0.856627734799     -0.475597770097
