22
OptimizedStructure
C     -2.017283855588     -1.093893298107      0.845469667714
C     -2.245578906184     -0.410686309700     -0.457994235874
C     -0.209619498339      1.031618950461     -0.118594319378
C      0.207966533921      2.440368935179     -0.495368497606
C      0.900348184216      0.057876517903     -0.423184894530
C      2.510609017518     -1.601459570974      0.350321451649
N     -1.426609542724      0.635279146563     -0.835123267456
N      1.396432877391     -0.723341361940      0.594280141573
O      1.326609208145     -0.012281790924     -1.556478946746
O     -3.152619646082     -0.786094423325     -1.176773248399
H     -1.454917797467      0.945335632315     -1.804025561849
H      1.142029171329     -0.553191315331      1.571922450624
H      2.564291482075     -1.811077501711     -0.718289971325
H      2.392034703670     -2.543650481171      0.885000553776
H      3.443327368634     -1.127413640642      0.654325824936
H     -0.431643620619      0.992080514330      0.957087379729
H      1.083802623762      2.761148932422      0.069269506938
H     -0.598394460908      3.152941970180     -0.320962668025
H      0.467794147149      2.477350342136     -1.553224271099
H     -1.028685036771     -1.549825006488      0.875994744560
H     -2.755771074279     -1.883556015086      0.979057587616
H     -2.114121878848     -0.397530226091      1.677290573172
