22
OptimizedStructure
C     -3.490183695948     -0.286882999737      0.441701964661
C     -2.143647900366      0.339277809108      0.374886922084
C      0.242568087170      0.130438840745     -0.190077446354
C      0.221261168178      1.098915773132     -1.355214881867
C      1.224589251977     -0.989863276364     -0.431025243429
C      2.943151309475      0.108268751850      1.014014374139
N     -1.068453428907     -0.449132206103      0.027010009017
N      2.492637110986     -0.930635746533      0.104326304544
O      0.854025533927     -1.919543377295     -1.118861549274
O     -2.007899648736      1.523324569439      0.611700720834
H     -1.175091049788     -1.391397990938     -0.364822643355
H      3.114681584042     -1.729105040281     -0.023190442562
H      2.771515251341      1.091076169945      0.578378636383
H      4.008891944607      0.014499889468      1.221416085092
H      2.403138039721      0.040473392680      1.957390743298
H      0.500745911615      0.659553198933      0.738356006561
H      1.197044040245      1.557302922674     -1.516719421633
H     -0.512616600302      1.887947335553     -1.184871550138
H     -0.057895389474      0.572504202960     -2.267459088652
H     -3.426196950933     -1.371697699035      0.367097652399
H     -4.118797131560      0.079560997495     -0.368589322759
H     -3.973467437269     -0.034885517697      1.384552171010
