22
OptimizedStructure
C     -1.450252044889     -1.291540496429     -0.739575576502
C     -2.077134465901     -0.212764018343      0.074088281667
C     -0.018985798178      1.290272735710     -0.013909475502
C     -0.097629624497      1.946348436186     -1.379771377363
C      0.941471613103      0.123253649406     -0.001741330393
C      2.189735555541     -1.511397988857      1.315402131173
N     -1.358074815562      0.899120712286      0.470242693155
N      1.375777477344     -0.327039993918      1.221530233684
O      1.285824147254     -0.399727706959     -1.042196341409
O     -3.241374763374     -0.336375689826      0.406743048305
H     -1.864003546815      1.637794811215      0.955505407467
H      0.962522873983      0.026108329563      2.089143462849
H      2.660321155743     -1.693890289066      0.349339105627
H      1.577906531755     -2.376416058004      1.569362694847
H      2.970716688973     -1.389609585473      2.065590729186
H      0.379702153184      2.023614786718      0.706116572537
H      0.887782108543      2.264806611310     -1.720989263661
H     -0.759555803058      2.812488780975     -1.367292329367
H     -0.484736978786      1.244252747999     -2.116071033314
H     -0.781136047464     -0.890590446869     -1.498449956123
H     -2.222308213438     -1.874706489375     -1.239670406647
H     -0.876568203461     -1.964002838249     -0.103397270216
