22
OptimizedStructure
C     -1.779189658368     -1.295875774792      0.559000859714
C     -2.375294003152     -0.071788273839     -0.042715250252
C     -0.147611031679      1.151069303299     -0.043497438843
C      0.458925858010      2.330786961372     -0.779307142158
C      0.642149468415     -0.096678076471     -0.350812879854
C      2.310368650204     -1.737427043148      0.349054405865
N     -1.570659180444      0.994020140494     -0.391149045805
N      1.446957213640     -0.620553814541      0.634209017980
O      0.558802120175     -0.604444722316     -1.448980581060
O     -3.576342726514     -0.027883487779     -0.232400956285
H     -2.008567442288      1.819018104895     -0.797275180792
H      1.607135968856     -0.121250208813      1.513669111349
H      1.972577800541     -2.220951473669     -0.567651380331
H      2.285115578768     -2.467194995658      1.157937933923
H      3.335439257009     -1.399578711532      0.199860424720
H     -0.105971164199      1.327571839520      1.041826056674
H      1.506665600011      2.470497984772     -0.511881791901
H     -0.077121003028      3.255755336756     -0.566006150724
H      0.412688608858      2.154380942265     -1.853889708044
H     -1.171655067757     -1.821321016202     -0.177963907189
H     -2.569413791996     -1.968014489553      0.891050555937
H     -1.155001055062     -1.050138525060      1.416923047076
