22
OptimizedStructure
C     -2.756681624658     -1.180099522405      0.588710768902
C     -1.488652152698     -0.420013333498      0.748025724344
C      0.286162533213      0.938607892702     -0.291906985435
C      0.235004438687      2.361410931180     -0.814255162817
C      1.253369257458      0.100863943825     -1.096894606849
C      1.965519920930     -1.146376722981      0.947616201404
N     -1.029948189629      0.318945603917     -0.321681436391
N      2.059033934887     -0.821936083719     -0.465183302598
O      1.278171286020      0.251344037077     -2.301985763487
O     -0.876119213851     -0.472270669033      1.796378810748
H     -1.418752812637      0.198003441721     -1.257755137289
H      2.662357383742     -1.416233789951     -1.034509467976
H      2.338281988469     -0.318462346431      1.548427007065
H      2.547416887229     -2.034949335572      1.191046867027
H      0.926962157997     -1.334558763808      1.215932561960
H      0.604270148320      0.948813304428      0.761101639264
H      1.210192015374      2.844505793134     -0.748054456014
H     -0.490134324032      2.959894028969     -0.262578638721
H     -0.058288755576      2.356433943260     -1.863770957820
H     -2.552254430757     -2.247237295358      0.515060740361
H     -3.295052998531     -0.868595395276     -0.305425893943
H     -3.400857449959     -1.018089662182      1.451701488266
