22
OptimizedStructure
C     -2.834579990803     -0.844706403625      0.605600959660
C     -1.631038358412     -0.365193409267     -0.127464735543
C      0.153215130328      1.380572688018     -0.310612586639
C      0.210819840557      1.260880094890     -1.821864653002
C      1.341701962846      0.714768241038      0.348399490075
C      2.475935406654     -1.369266331001      0.930934753405
N     -1.104043766373      0.857173611536      0.237786443165
N      1.463184999213     -0.643859452971      0.209563623784
O      2.143594228709      1.383327226011      0.968520663460
O     -1.148722221826     -1.062995888553     -0.997725980000
H     -1.424190676679      1.317054568282      1.091845464587
H      0.687814816383     -1.174791011329     -0.205766226055
H      3.292392214465     -0.688508875638      1.171759393308
H      2.868729469318     -2.190541995152      0.331997577998
H      2.069571738640     -1.762593179875      1.862132421037
H      0.206294507865      2.448654410042     -0.041772671636
H      1.144508791574      1.659857364920     -2.219244411031
H     -0.620962553863      1.787656531964     -2.289510639580
H      0.138962808435      0.214038231120     -2.115660432115
H     -3.317630740622     -0.033397975169      1.148502679788
H     -2.560678592266     -1.622506612047      1.316907900504
H     -3.554879014144     -1.265621833193     -0.094329035169
