22
OptimizedStructure
C     -1.855187653591     -1.282417624577      0.755313278725
C     -2.334520931586      0.022409330421      0.222209665245
C      0.012233331976      0.798703693271     -0.390741140468
C      0.612014005389      1.748567492593     -1.410372086248
C      0.494210194995     -0.605039976162     -0.669497537948
C      2.156916485101     -0.478505533941      1.200246931879
N     -1.459566186516      0.889170436417     -0.403195159374
N      1.465915382445     -1.173530954514      0.126888124422
O      0.015071981349     -1.207542175482     -1.608492518911
O     -3.510941130328      0.311657196465      0.336241403143
H     -1.825234242817      1.777880581613     -0.740557054950
H      1.815558397266     -2.100187923597     -0.116535920070
H      2.965002829740     -1.086173423977      1.607037759881
H      1.465212799322     -0.252541203695      2.010159060814
H      2.586621786966      0.451563384344      0.831752939284
H      0.329127810824      1.089008913908      0.620734914872
H      0.304025562085      2.778700646446     -1.230467487668
H      0.279904031656      1.467567270298     -2.409792896964
H      1.701476955572      1.708366342617     -1.401023855850
H     -1.520559622234     -1.923803313718     -0.060609372553
H     -2.665979127808     -1.789519584982      1.276898604923
H     -1.031302659807     -1.144333573749      1.453802347817
