22
OptimizedStructure
C     -2.433289611705     -1.613106228357      0.537714087011
C     -1.523577093544     -0.560634445893      0.007859711006
C      0.188629866663      1.212681781181      0.583270845148
C     -0.060010959442      1.858628400324     -0.767551552665
C      1.642272855499      0.826359671475      0.781232957196
C      1.573307175105     -0.981981839095     -0.955329899332
N     -0.713680021629      0.097213828058      0.911243875867
N      2.209263925171     -0.240313206650      0.115258095870
O      2.298988569377      1.499481454036      1.553093185558
O     -1.505070838981     -0.338355614703     -1.186203166856
H     -0.681820924098     -0.197622519762      1.887843227227
H      3.207795600125     -0.410880993103      0.237894234489
H      1.860194979083     -0.574821762666     -1.924026229913
H      0.494076211936     -0.920112689694     -0.861142908558
H      1.855622847370     -2.033637021119     -0.918282543455
H     -0.012307684771      1.980320356464      1.351503732834
H      0.596622894140      2.714053585576     -0.929646819882
H     -1.095092003311      2.190286125983     -0.853814845304
H      0.108607709661      1.147659083526     -1.573931556105
H     -2.568287866488     -1.515661718356      1.614093468701
H     -2.032573936511     -2.603625729984      0.327333900515
H     -3.409671693648     -1.535930517241      0.061588200648
