22
OptimizedStructure
C     -2.361825233670     -1.452267013968     -0.166348646403
C     -1.404753695888     -0.328078196419     -0.352201520916
C      0.415771994958      1.072123323177      0.607368022670
C     -0.354627400834      2.341086013343      0.293178250272
C      1.552390550245      0.898793088206     -0.385985499959
C      1.672138327994     -1.584099460941     -0.048668008181
N     -0.492486186185     -0.080597044258      0.650101836881
N      2.098677238789     -0.338380039253     -0.654396976078
O      2.003331997181      1.895487706911     -0.918183215047
O     -1.461295365063      0.341792466048     -1.363362598497
H     -0.568271158566     -0.563799287997      1.548203082677
H      2.834578209615     -0.402845120925     -1.359192677807
H      0.706634352944     -1.878916314145     -0.456049068066
H      1.579050667285     -1.461667522321      1.028791296394
H      2.387337436588     -2.383888512882     -0.239802524840
H      0.879919979334      1.173954384813      1.601504975306
H      0.306348048697      3.208521202824      0.276254222333
H     -1.155119172093      2.514262169371      1.012343841116
H     -0.802397705625      2.248945523020     -0.697295561386
H     -2.081925127092     -2.078353350992      0.679775098912
H     -2.386860303407     -2.073297720109     -1.060601336342
H     -3.366617455206     -1.068776293501      0.004567006962
