22
OptimizedStructure
C     -2.679438557581     -0.284419776338      1.651350592179
C     -2.335574812475     -0.610297632785      0.239883020121
C      0.023927600833      0.255573671275      0.530130611812
C      0.007089643832      1.770319922591      0.455103403840
C      1.349480073423     -0.289041185891      0.053764344231
C      2.849936323560     -0.806944255447     -1.794892751870
N     -1.073038897321     -0.340952921760     -0.242150453056
N      1.564560876528     -0.385861316319     -1.300391539004
O      2.192601869221     -0.608668797610      0.867763642767
O     -3.169962392783     -1.130672683123     -0.476135898232
H     -0.820264402800     -0.670098711862     -1.174788795648
H      0.941014718810      0.068564275202     -1.973864866412
H      3.471390318586      0.057281859800     -2.027513293097
H      2.742559319757     -1.426805222500     -2.684879635081
H      3.349185477273     -1.390581412612     -1.021099231080
H     -0.093309442389     -0.071265316696      1.573972942023
H      0.815786665438      2.203351735519      1.044701822366
H     -0.937377558836      2.179846249679      0.811940383825
H      0.136083141670      2.097136632680     -0.575967697867
H     -2.351533729712      0.717470002546      1.922729074257
H     -2.223759144597     -1.000533463619      2.334222405904
H     -3.759357090436     -0.333401652731      1.786121918021
