22
OptimizedStructure
C     -2.687894093359     -1.403441828976      0.465503008543
C     -1.603598937784     -0.417449569335      0.718622323631
C      0.001190174044      1.215363831638     -0.199404108221
C     -0.038662695821      2.382582885297     -1.166935732717
C      1.258035797335      0.392258419982     -0.372231539726
C      2.648773725841     -1.405529328522      0.512262917780
N     -1.170338661903      0.359711429478     -0.335791599235
N      1.592827753530     -0.440747528911      0.667750286003
O      1.907499126200      0.458909117196     -1.395176186502
O     -1.115391149643     -0.327995144536      1.828508538060
H     -1.415455166132      0.123301876950     -1.298372713104
H      0.893600058118     -0.620162457403      1.400550970056
H      2.252089081742     -2.341641550652      0.120543995512
H      3.149104055748     -1.593336807703      1.462013237131
H      3.378295790892     -1.017394712266     -0.198364701980
H     -0.016290480293      1.590828189466      0.836401976526
H      0.814991796739      3.044931640747     -1.020945114861
H     -0.954900092245      2.962228764462     -1.053782749101
H      0.006730544746      2.014798511924     -2.191522457338
H     -2.285454568182     -2.415333023788      0.456089122290
H     -3.177806575797     -1.216678198671     -0.489185772999
H     -3.437345483777     -1.345204516377      1.253466300251
