22
OptimizedStructure
C     -3.204669588187     -0.730388132722      0.292728258535
C     -2.160094188326      0.252220824906     -0.099728688058
C      0.193799453576      0.736385628434     -0.595148549824
C      0.144251737226      0.778098206386     -2.108952587365
C      1.555044821375      0.319469194876     -0.090764604697
C      2.875369637567     -0.576872146263      1.761398194371
N     -0.839515050247     -0.139569764388     -0.060999954582
N      1.609561835987     -0.244739074461      1.158330234233
O      2.546904786918      0.499563988215     -0.767735185295
O     -2.478706249245      1.368543173063     -0.458583111741
H     -0.582208016572     -1.126225792129      0.002703674293
H      0.763481605024     -0.306542881968      1.739272949963
H      2.840414738683     -1.562469155759      2.224755544435
H      3.146474441872      0.165616683086      2.511223280074
H      3.643730283133     -0.581553239851      0.988188795175
H     -0.020980296793      1.740318773461     -0.195306341343
H      0.911479418425      1.443293101692     -2.506848565605
H     -0.832733848053      1.116248383873     -2.456940289738
H      0.324340306900     -0.215866408252     -2.516496542447
H     -2.765047666890     -1.610582972045      0.759985037141
H     -3.772751531784     -1.048518510187     -0.580221753641
H     -3.898146630588     -0.276429879967      0.999140206119
