22
OptimizedStructure
C     -3.123815178041      0.477875378628      0.025622215300
C     -2.294697759332     -0.728434155362      0.297763984363
C     -0.157709703954      0.526127245576     -0.212712475884
C      0.008563578596      0.627285526200     -1.716869696864
C      1.186673730658      0.522980181637      0.475213950420
C      3.225695560958     -0.672890798042      1.066321175613
N     -0.923845761401     -0.665654278490      0.172371704218
N      1.898655390554     -0.652361761256      0.507236884489
O      1.611712077729      1.550973975735      0.963253045254
O     -2.834337565593     -1.760926973076      0.647654859329
H     -0.364042642799     -1.466383911204      0.468173839804
H      1.633969662240     -1.452931906373     -0.074061374515
H      3.324589116091      0.158130222118      1.765078856312
H      3.972389396691     -0.552473261779      0.282004906077
H      3.409649075917     -1.603648724304      1.602683858827
H     -0.702494686837      1.403613306361      0.165972808474
H      0.564839382668      1.523725186717     -1.992708201502
H     -0.953905993652      0.648047430236     -2.227050063543
H      0.559171290586     -0.234043531725     -2.093033874696
H     -3.042954969326      1.193511988124      0.842997313797
H     -4.170577867554      0.190164027075     -0.065462171970
H     -2.827526134198      0.967314833203     -0.900451543301
