22
OptimizedStructure
C     -2.639887079747     -1.520892528096     -0.237467039352
C     -1.576588127451     -0.621375674379      0.283374326931
C      0.238838167330      0.976012744520     -0.196058997605
C      0.163468983888      2.400615119306     -0.710510965633
C      1.493494271190      0.289350921795     -0.685591891972
C      1.735966729225     -0.937601683352      1.477412195501
N     -0.924936666855      0.205385455351     -0.606883800106
N      2.191405266099     -0.553185670253      0.152720082740
O      1.845523910517      0.485421222453     -1.831513187124
O     -1.290581446538     -0.638322215366      1.464426647563
H     -1.009293744404      0.073069009968     -1.615549378257
H      3.002332803940     -1.050240089566     -0.216948091436
H      1.813593625634     -0.093549057423      2.160725153965
H      2.329036045935     -1.758735765147      1.879197517991
H      0.696051466833     -1.257864777487      1.432510526151
H      0.236178857591      0.985777641311      0.903950708470
H      1.010078907372      2.993778011293     -0.363865019243
H     -0.758551833490      2.887943461634     -0.393109114138
H      0.188030223187      2.398868748022     -1.799970822015
H     -3.520350925919     -1.468296139379      0.401268434956
H     -2.291589722315     -2.552669173869     -0.248745323720
H     -2.932219712020     -1.243489561335     -1.249371963667
