22
OptimizedStructure
C     -3.420311526881     -0.955433073733     -0.413289039449
C     -2.346540980321     -0.111019849730      0.173141783356
C      0.014974129808      0.562635910210      0.208200115667
C     -0.174797076440      1.952812625495     -0.363009503685
C      1.352852082995     -0.007792868157     -0.188880189567
C      3.513494255254     -0.934040786382      0.467566643547
N     -1.046260201363     -0.327924887097     -0.227167266484
N      2.270089414892     -0.287000707527      0.796659493421
O      1.582026417146     -0.201978583985     -1.364096208037
O     -2.622949079707      0.757438373278      0.976931831787
H     -0.818374227869     -0.904768075026     -1.038703900867
H      2.020234681520     -0.232349174226      1.788222723047
H      3.449270337495     -2.003950428474      0.663256992820
H      4.338786570537     -0.510765028758      1.039685890094
H      3.715166973375     -0.790881928307     -0.594043674794
H     -0.047665916769      0.599100684873      1.306437768665
H      0.595542867384      2.639415647866     -0.011179857321
H     -1.152238587996      2.351657325955     -0.087994024940
H     -0.119067571951      1.914421403930     -1.450556778413
H     -4.043475051284     -0.364657503632     -1.083086430775
H     -4.056178661906     -1.353484132006      0.376152907313
H     -3.004578847920     -1.791434944568     -0.974249275386
