22
OptimizedStructure
C     -3.101970226431     -1.025195088657      0.464565941559
C     -2.072827461517      0.029037345890      0.664914965340
C      0.131256153253      0.951537731054      0.106631520540
C     -0.278722740769      2.080598270485     -0.816914457082
C      1.513423449644      0.436396203904     -0.218105623884
C      3.125221948580     -1.391263894883     -0.020736608531
N     -0.839755383573     -0.133012966528      0.071448885766
N      1.800705475646     -0.851862073963      0.155258406813
O      2.325646520409      1.150967017590     -0.769641386095
O     -2.331455664998      1.013874338565      1.327993593463
H     -0.696060225407     -0.820715410419     -0.670287066080
H      1.119818398256     -1.401896787779      0.694721538833
H      3.084715510418     -2.399184097143     -0.432779268159
H      3.658001736764     -1.410366237631      0.929424223824
H      3.676591326082     -0.753431413468     -0.711688214884
H      0.143070470997      1.316524667904      1.146117376031
H      0.443723380693      2.896818161900     -0.780852520300
H     -1.262611769258      2.466385056347     -0.546594716371
H     -0.324590604104      1.724532356013     -1.845312641863
H     -3.543097537448     -1.303245623989      1.420652190420
H     -2.671980067654     -1.917662037564      0.011851391160
H     -3.899102689581     -0.658835517630     -0.180667530501
