22
OptimizedStructure
C     -2.110636544837      0.680205875372      1.121271665533
C     -1.636274897904     -0.680459467974      0.745063771112
C      0.116243050652      0.282006309729     -0.800402822285
C     -0.505323285244      0.580016492831     -2.152213020783
C      1.586448718000     -0.056709676368     -0.940316992500
C      1.757198805012     -0.414462812177      1.525471437921
N     -0.587152929835     -0.821673203794     -0.138469997604
N      2.323499300912     -0.327111176760      0.191451767541
O      2.089027976740     -0.089869454697     -2.046587210314
O     -2.172893511355     -1.656530364084      1.234256903130
H     -0.321078326495     -1.751037281559     -0.454913515811
H      3.295515898375     -0.619386527881      0.084090131596
H      2.525650026528     -0.622390062785      2.269738282389
H      1.015949972657     -1.211585549441      1.564162250621
H      1.274279882534      0.524620698811      1.789028136354
H      0.042696220330      1.168562031895     -0.154974873513
H     -1.565543453415      0.817443044952     -2.066677260615
H     -0.407332447736     -0.291198730086     -2.799322028078
H      0.003881183709      1.408925375044     -2.644827557953
H     -3.058288782335      0.603374938071      1.653095073794
H     -2.269221795033      1.302973446977      0.242226261456
H     -1.396645061258      1.174286093924      1.778849598009
