22
OptimizedStructure
C     -2.778654373742     -0.141767068455      1.004338778572
C     -2.382202203001     -0.423030573127     -0.403494288674
C     -0.078837497735      0.539010213072     -0.024074464850
C     -0.179437283174      2.036849467901     -0.237791091526
C      1.287953358564      0.040802685315     -0.424288233304
C      3.163565021123     -1.463340996700     -0.027376426753
N     -1.088438500847     -0.173244836982     -0.811436858623
N      1.939369902909     -0.841680961917      0.405406675688
O      1.765967046262      0.414393466798     -1.474827993976
O     -3.203092623638     -0.879112183123     -1.176844361107
H     -0.837752484410     -0.307952198689     -1.787809788257
H      1.455591445394     -1.276925032023      1.196113509643
H      3.639207188547     -0.823361651306     -0.770743670540
H      2.956284995239     -2.428210304746     -0.489400542701
H      3.850656330195     -1.601062946801      0.807256787195
H     -0.237773832954      0.294121934881      1.035364455489
H      0.551854231440      2.575524836069      0.365293154731
H     -1.174176733591      2.411868604743      0.001767144006
H      0.021707395117      2.268473980550     -1.283704186463
H     -2.253326771782     -0.800533618180      1.694727209738
H     -3.847787509664     -0.312659138317      1.124988459408
H     -2.570677100253      0.891836321039      1.276535732303
