22
OptimizedStructure
C     -2.715928417639     -1.374647237175      0.381048501268
C     -1.616471213003     -0.420965003828      0.687038985349
C      0.024260193472      1.222999437076     -0.143371280616
C      0.012838107641      2.433819216404     -1.056547620322
C      1.267730227652      0.386168162500     -0.344687992184
C      2.619320964748     -1.474981784084      0.466390250456
N     -1.161055411095      0.395726076598     -0.327403976694
N      1.579352540142     -0.499471527461      0.658347698508
O      1.926508183582      0.487874892401     -1.358753115311
O     -1.135738041223     -0.391224944286      1.803375630203
H     -1.402527363834      0.208086767312     -1.301578892634
H      0.871172003498     -0.699625723516      1.377044144344
H      3.361288668726     -1.067926758677     -0.220366420699
H      2.209343254389     -2.384890916457      0.029247474165
H      3.108583201123     -1.715038934246      1.410119144835
H      0.005048682136      1.550901760389      0.908429224435
H      0.876848465398      3.073308096956     -0.874105278584
H     -0.893904954874      3.024083731088     -0.923548633851
H      0.060001931477      2.112571278602     -2.096585691179
H     -2.331355750737     -2.392129095733      0.328094977891
H     -3.194744619471     -1.135575685496     -0.567584765110
H     -3.470570652110     -1.339061808367      1.165397635729
