22
OptimizedStructure
C     -1.459594653585     -0.816909567565     -1.257100632328
C     -2.297174012983     -0.258956373615     -0.159574940032
C     -0.301923628550      0.497034386009      1.236624219907
C     -0.044801337388      1.934251435832      0.816579966640
C      0.625644576434     -0.508885058050      0.587986609847
C      2.560227680821     -1.042381177211     -0.805167627221
N     -1.725316050711      0.155790811563      1.030463100158
N      1.610030421312     -0.094486329787     -0.281474821717
O      0.477519521238     -1.686434325254      0.844184373529
O     -3.500695939509     -0.177996757077     -0.321942469152
H     -2.346628428949      0.571976134128      1.722522662685
H      1.828568867453      0.894931236364     -0.422478817669
H      3.514723451628     -0.952745340100     -0.287293936378
H      2.713741674217     -0.892085202745     -1.873507401441
H      2.178913986837     -2.051112153957     -0.646155405348
H     -0.118829539482      0.404080601949      2.319888672234
H      0.969778654083      2.252222887112      1.057354644803
H     -0.735750325150      2.614564383761      1.314760790234
H     -0.195274064824      2.050602037065     -0.255878608390
H     -0.737325726715     -0.084248489102     -1.613798876841
H     -2.093075044671     -1.108368259894     -2.093916706799
H     -0.922760081506     -1.700844879427     -0.912074796722
