22
OptimizedStructure
C     -1.605653024216     -1.301017277317      0.327540595258
C     -2.057949724637     -0.086883876993      1.061517331877
C      0.094285274891      1.210001851807      0.628053082440
C     -0.162580460664      1.990294185068     -0.649955479089
C      0.901421789106     -0.055006645825      0.424899161162
C      2.215553953610     -1.545392465260     -0.996338913935
N     -1.181365193172      0.950270774327      1.328232596998
N      1.353127236351     -0.403594147908     -0.828557462630
O      1.133921240554     -0.757631776621      1.387428318092
O     -3.215483184082     -0.021326120495      1.431924376215
H     -1.564461133041      1.772763787779      1.791836603714
H      1.270557664120      0.226680750645     -1.630133642172
H      3.248800491272     -1.227338636185     -1.132481824365
H      1.907006700840     -2.145711154735     -1.851863759548
H      2.163834720828     -2.163356486736     -0.099862299150
H      0.696717575670      1.832062193091      1.310506107306
H      0.765965480895      2.292910701216     -1.134389797333
H     -0.742431274342      2.890630114455     -0.446022636693
H     -0.736956155670      1.389857690091     -1.354168202511
H     -1.262699435722     -1.051051010009     -0.675254556380
H     -2.429061880978     -2.008847668790      0.241050334070
H     -0.792550661613     -1.788314781606      0.866040066673
