22
OptimizedStructure
C     -3.047468955496     -0.562558872983      0.369163503798
C     -1.915410909287      0.042447270283     -0.383536672821
C      0.339607732263      1.061648121056     -0.302088002342
C      0.710751202832      0.623144807153     -1.706526785686
C      1.551291707001      1.102796679227      0.604216053378
C      1.691036326200     -1.400020138111      0.729904539957
N     -0.729568008093      0.259765180332      0.287229319971
N      2.075030429869     -0.058016544649      1.133351058337
O      2.048958954366      2.187131261947      0.840714518397
O     -2.062648247837      0.335999497655     -1.552866070905
H     -0.696670025190      0.208464806839      1.306799125305
H      2.937458934105      0.007228886242      1.674438449392
H      0.652110112203     -1.427626865378      0.410515829776
H      1.803549309289     -2.097231291057      1.559671760953
H      2.315564005987     -1.739523242575     -0.095346281272
H     -0.053445834217      2.091004360362     -0.347453283171
H     -0.162339866170      0.645508117240     -2.360161037564
H      1.092126047672     -0.395975348509     -1.706236658903
H      1.479698941083      1.268594111155     -2.132327410161
H     -2.725212041224     -0.934326992487      1.340890708061
H     -3.470343207800     -1.393024481851     -0.194288605203
H     -3.834076607557      0.174570678109      0.523935940701
