22
OptimizedStructure
C     -1.474478394958     -1.563798054170     -0.178197855558
C     -2.242867464779     -0.289666741193     -0.201791312347
C     -0.176579905978      1.259130068780     -0.015543111900
C      0.242598071610      2.305543945171     -1.030720403995
C      0.737235311064      0.063912894044     -0.121757468910
C      2.233629089214     -1.527377791107      0.979008961654
N     -1.616131745267      0.943078577577     -0.177365269801
N      1.277150136473     -0.451259701506      1.033618723561
O      0.967960758301     -0.419996156274     -1.210606133920
O     -3.458133521777     -0.346199963994     -0.247451225059
H     -2.208600816269      1.770202458804     -0.206915565087
H      1.136081381072      0.003932368363      1.939630535037
H      2.236594509857     -1.949654314772     -0.025802540506
H      1.975317236048     -2.314557570303      1.686853677387
H      3.235618638173     -1.160262303185      1.199027254710
H     -0.062961782574      1.669108268432      1.000097789037
H      1.286137808168      2.592558750960     -0.898546261917
H     -0.374893405273      3.201476318775     -0.964915644564
H      0.138168618826      1.897009251188     -2.035796935140
H     -0.792164605188     -1.617719204170     -1.026496287225
H     -2.159060657871     -2.408891887622     -0.238953540132
H     -0.900619258873     -1.656569213797      0.742622614675
