22
OptimizedStructure
C     -2.935267004715     -0.214611570629      0.708451464135
C     -1.480049201936     -0.522189809937      0.827573929327
C      0.257417038557      0.451294411931     -0.695065503965
C     -0.204950793553      1.229917151190     -1.910238497132
C      1.641707356937     -0.123373507995     -0.915152885486
C      1.949099182708     -0.364133711225      1.543839382938
N     -0.708542859252     -0.621720410131     -0.367836486950
N      2.420230642690     -0.443814158143      0.175463819452
O      2.028415274202     -0.311668685345     -2.051567951031
O     -0.995627120676     -0.667018871436      1.935746012184
H     -0.185739117507     -1.490942771140     -0.503826870830
H      3.339085163012     -0.860650346499      0.022230616925
H      2.538089518809     -0.997115123849      2.207014586978
H      0.913693258674     -0.696482250138      1.584255734925
H      2.001803671746      0.662795178804      1.901892220259
H      0.297568128974      1.125446457730      0.173857095651
H     -1.204171763002      1.640799957566     -1.765532198212
H     -0.232548637611      0.568850267681     -2.776152796235
H      0.480456156679      2.045425780138     -2.142632841909
H     -3.523777568319     -0.985406847096      1.203548099650
H     -3.236710940134     -0.165509868322     -0.336991709829
H     -3.160180386285      0.740108726848      1.181124779158
