22
OptimizedStructure
C     -3.549763371007     -0.312489253290      0.427082120004
C     -2.200010947823      0.309803087759      0.398781097159
C      0.183299137012      0.136464776552     -0.160198451556
C      0.181256748160      1.103676274682     -1.325217327785
C      1.220577458888     -0.950662950261     -0.355040711209
C      3.286794826401      0.009478771930      0.669504613830
N     -1.125344911677     -0.464340264676      0.019705107695
N      2.290082907765     -1.052719767638      0.584932019308
O      1.082962079957     -1.684678184994     -1.315287780566
O     -2.060590715045      1.480654646661      0.692576469697
H     -1.243803742399     -1.377774197324     -0.421799918386
H      2.055225925462     -1.350932042047      1.540580217531
H      3.613514095437      0.273726902721     -0.334920630959
H      4.159922561525     -0.321833657712      1.230993922435
H      2.875718597885      0.900132393530      1.143598703287
H      0.404485085977      0.673722247604      0.774448420357
H      1.148226584584      1.592837397417     -1.444084624762
H     -0.584007124366      1.869031634313     -1.188351183790
H     -0.038612949812      0.566713796354     -2.247631370956
H     -3.489511489426     -1.394096315543      0.313292315348
H     -4.167672840546      0.086488721750     -0.376053919519
H     -4.042747916951     -0.093204017789      1.373090912838
