22
OptimizedStructure
C     -2.651625706598     -1.052184879138     -0.850396699638
C     -1.720566824813      0.083889498606     -0.607787848191
C      0.360014136590      0.874313253336      0.547774547027
C     -0.093452048001      2.308926250771      0.355518055202
C      1.522736965060      0.558069010601     -0.373638965225
C      1.912719720461     -1.659685099733      0.733855200207
N     -0.738860450897     -0.080585021580      0.346854677632
N      2.244293842839     -0.605133083513     -0.207346980786
O      1.811349959814      1.345126225718     -1.254117739713
O     -1.860404417089      1.104047165530     -1.250603428729
H     -0.631720225103     -0.980208358285      0.817172973324
H      2.967347381299     -0.826950640952     -0.892176677481
H      1.111718225730     -2.280051080221      0.334934773416
H      1.596283600029     -1.239710313078      1.686214450790
H      2.776914351307     -2.296008351302      0.923438517612
H      0.712478604188      0.761234598211      1.584928277399
H     -0.945319854292      2.547614673873      0.992303675379
H     -0.402802855396      2.442454135514     -0.682593993275
H      0.713552863522      3.014984549608      0.553350491225
H     -2.442789571127     -1.889856657172     -0.186527777975
H     -2.560948381716     -1.396233204267     -1.879711312262
H     -3.680919315808     -0.734052672530     -0.691444215939
