22
OptimizedStructure
C     -2.588645606465     -0.148634460970      1.902863185088
C     -2.553650410559     -0.581721655564      0.478395629861
C     -0.130792816330      0.107726124568      0.251836910684
C     -0.088858376556      1.614428753404      0.058231528399
C      1.020559251859     -0.619224418589     -0.412304422218
C      3.179704936918     -0.622150488380     -1.551626932185
N     -1.394778481815     -0.438048101699     -0.257304196447
N      2.128162405271      0.069750314710     -0.851660987508
O      0.947130102993     -1.824114223645     -0.538330719989
O     -3.549022828275     -1.075173986874     -0.017376472686
H     -1.327844312053     -0.881293934976     -1.171023957391
H      2.177276438767      1.091828995822     -0.837011571159
H      3.110636109409     -0.437810954153     -2.623318158897
H      3.070545638067     -1.693323907100     -1.379714416948
H      4.160161969556     -0.309838362591     -1.192735771220
H     -0.080075145770     -0.134278238206      1.323271050956
H      0.792176585824      2.059664092456      0.520626499362
H     -0.969503042656      2.091784865786      0.486876007121
H     -0.077835298779      1.856308112795     -1.003947951110
H     -2.142177939681      0.835307398815      2.035042484383
H     -2.061377446076     -0.862693592608      2.534442856594
H     -3.621791733648     -0.098492333000      2.244769405312
