22
OptimizedStructure
C     -2.062277806901     -0.958328350928     -1.096151725658
C     -2.301707366884     -0.460712053704      0.292524998580
C     -0.150266068346      0.792689928794      0.791276128059
C     -0.745456372457      2.007246987476      0.105181107714
C      0.915587560374      0.150374318454     -0.061072872997
C      3.088858608997     -0.955243626658     -0.203275865048
N     -1.190976277555     -0.192469910134      1.150833129467
N      2.085884352309     -0.242064212357      0.544301732789
O      0.712117783449     -0.022169722901     -1.244670071962
O     -3.455039673648     -0.305875959865      0.653460676656
H     -0.720912966978     -0.992821346221      1.590686101922
H      2.202582410893     -0.197069444824      1.560710264265
H      3.018976671457     -2.025283555829     -0.010446156740
H      4.089241365341     -0.606909571819      0.052661154328
H      2.922820142221     -0.786069909093     -1.267165379521
H      0.317242678460      1.117511415595      1.734416216718
H      0.007027552616      2.776750094628     -0.069443034308
H     -1.554491246969      2.435264206025      0.697827632066
H     -1.155113775553      1.725400066549     -0.863719691653
H     -1.001655350658     -1.117185035522     -1.282372063006
H     -2.437421817838     -0.242200737302     -1.825118842547
H     -2.585020402331     -1.900833580369     -1.250443439124
