22
OptimizedStructure
C     -2.774024727060      0.037576943731      0.977425226692
C     -2.175600969986     -0.642078841534     -0.204990129125
C     -0.042869693282      0.682004434089      0.038965505654
C     -0.261443784055      2.015176135766     -0.696309994891
C      1.412596268858      0.270749301021      0.020667474660
C      3.041161936269     -1.549586873695      0.065511220245
N     -0.864683742580     -0.384430879720     -0.548155459867
N      1.689810953472     -1.063956935752      0.178874486022
O      2.285824446318      1.103089569650     -0.117257186011
O     -2.848871349224     -1.421149188052     -0.853051639981
H     -0.503951536293     -0.760161023981     -1.421805275544
H      0.929815866289     -1.757804673839      0.195373927745
H      3.728149524950     -0.715023499821      0.206738959797
H      3.211555929343     -1.972128598694     -0.924224492685
H      3.249096481932     -2.305555846906      0.822363914354
H     -0.330688974801      0.777966153493      1.096222700380
H      0.679229879856      2.376240649398     -1.116068274882
H     -0.649646783027      2.796746966456     -0.040968898311
H     -0.964589222564      1.890098346728     -1.520556686916
H     -3.830335660726     -0.218117499737      1.052101865136
H     -2.695111251777      1.120474763446      0.891413304970
H     -2.285423591913     -0.280129402046      1.897729452561
