22
OptimizedStructure
C     -2.489844183546     -1.526494435845      0.649275786526
C     -1.522570932737     -0.517786316633      0.137078268638
C      0.084481663094      1.277630235614      0.684997205279
C     -0.137101891759      2.036328975695     -0.609751231004
C      1.311968643249      0.388791106256      0.629303682865
C      2.048276124405     -1.169255171461     -1.115344981172
N     -1.069219937430      0.445230921274      1.018361240939
N      1.967986429980      0.193714530674     -0.618810647695
O      1.661904095270     -0.166599110134      1.653201980614
O     -1.149469783011     -0.579522679089     -1.017764155712
H     -1.195323417772      0.301336743563      2.022051915186
H      2.907055231822      0.602631681627     -0.715062030426
H      2.535966174797     -1.215931134121     -2.089013356497
H      1.033956347955     -1.555394205187     -1.219798456794
H      2.583648955901     -1.799331899503     -0.405131973908
H      0.236265779222      1.995988475088      1.506223897404
H      0.720055549555      2.660726304766     -0.862300074834
H     -1.024075803228      2.666903188960     -0.550443558774
H     -0.289695882228      1.327646552088     -1.423826930492
H     -2.964714641147     -1.187478398591      1.569011922862
H     -1.982693110313     -2.469327422304      0.849076517992
H     -3.266855412078     -1.709807942737     -0.091335020998
