22
OptimizedStructure
C     -3.529543648080     -0.728665717823      0.156668197498
C     -2.209090960551     -0.146661092410      0.513401533395
C      0.187860352731      0.103812521430     -0.003045562603
C      0.135863170368      1.596925679827     -0.258323805003
C      1.210475382747     -0.569252100434     -0.888538791526
C      3.108334455164     -0.065449132197      0.692897135040
N     -1.109664916730     -0.504483987627     -0.235029460875
N      2.527025557000     -0.682125678257     -0.490839757650
O      0.834446829071     -0.988228996029     -1.965046671531
O     -2.116205836070      0.634829142407      1.439112675076
H     -1.181618798289     -1.035386781054     -1.111081874493
H      3.191840538738     -1.107389464736     -1.136474957018
H      3.659197932661     -0.806135895642      1.271655471734
H      2.347858968417      0.364504229688      1.339056774145
H      3.793327754736      0.731707724645      0.405907457616
H      0.422759405456     -0.098581752803      1.051874763012
H     -0.130379372206      1.784874627394     -1.297971777016
H      1.096150295767      2.075206435564     -0.065512199172
H     -0.621383383106      2.066750986513      0.370970630836
H     -4.005260245787     -1.147320296512      1.042373216305
H     -3.426291469859     -1.519887395057     -0.584806572187
H     -4.185702012177      0.040956943113     -0.247246425581
