22
OptimizedStructure
C     -3.048196553339     -0.530241575398      0.509580934338
C     -1.582661181481     -0.701833071315      0.288170679964
C      0.163843993538      1.102294897161      0.561892707511
C     -0.454812662219      1.739729178809     -0.665453783643
C      1.540154916527      0.570257498941      0.243810562945
C      2.825606200563     -1.299895980274     -0.654216631723
N     -0.682688055801      0.020839186648      1.125932654785
N      1.604084542974     -0.746646073319     -0.131653056092
O      2.510983554351      1.296759270443      0.300112460080
O     -1.201877450994     -1.449183560481     -0.595324837707
H     -0.008201219406     -0.553232408810      1.650315293937
H      0.715651380536     -1.226089613019     -0.361516333405
H      2.865026674818     -1.174836520321     -1.735852838044
H      2.909423476833     -2.358357831724     -0.408831671088
H      3.669342432577     -0.768213507651     -0.214475922208
H      0.279040403672      1.862859852175      1.350393991479
H     -1.436551943599      2.158124087038     -0.443730908268
H     -0.579485021539      0.993421444658     -1.450011380045
H      0.180279616569      2.534031188138     -1.059112492424
H     -3.525889292054     -0.152492767921     -0.392958589622
H     -3.237860579023      0.168939355684      1.322862213785
H     -3.505213233504     -1.486233049462      0.760066945447
