22
OptimizedStructure
C     -2.389377356285      0.568669189495      0.832710301448
C     -1.741348210489     -0.743268820323      0.557042434689
C      0.204507263220      0.306177696309     -0.683787570693
C     -0.405515725626      0.697630558082     -2.016614784139
C      1.665249017552     -0.061971778056     -0.842471063279
C      1.852039931077     -0.385873469578      1.625290080077
N     -0.520745275220     -0.820019426016     -0.085320984747
N      2.407145750108     -0.338127119793      0.284164116610
O      2.151776079330     -0.118337207004     -1.954742935141
O     -2.315283360216     -1.758228196703      0.904068829993
H     -0.178948551276     -1.732631249751     -0.376334960129
H      3.375020737754     -0.642256206811      0.172379268208
H      2.609085148038     -0.664447208525      2.358073807123
H      1.046332072458     -1.117272457888      1.669683317096
H      1.453927176100      0.589135904352      1.900646099003
H      0.158644971271      1.153196643818      0.014241317108
H     -1.457971008900      0.963007806735     -1.918706092074
H     -0.332923476750     -0.139626285994     -2.710317354949
H      0.129524200161      1.536450625643     -2.462783687948
H     -1.737983301729      1.412571013488      0.619446348409
H     -2.680854351859      0.622850861488      1.880707865677
H     -3.292301728720      0.672369127033      0.232625647658
