22
OptimizedStructure
C     -3.546042618815     -0.551239659285      0.050992754174
C     -2.237474663537      0.118090814017      0.273539325115
C      0.185747349899      0.176762270463     -0.110159105148
C      0.208845944131      1.381060328489     -1.027712307479
C      1.297620735549     -0.793264589910     -0.454458387663
C      3.224134023289     -0.002414642158      0.925368359697
N     -1.094000144856     -0.504140351744     -0.177235597538
N      2.301510892743     -1.059418301724      0.524915355726
O      1.273158612628     -1.296684059831     -1.561599379380
O     -2.189859142611      1.197208789472      0.830211816240
H     -1.125643910816     -1.298485378277     -0.818589926126
H      2.017366121614     -1.575390732979      1.367759353066
H      4.073262091411     -0.414573924967      1.469883229606
H      2.727591397206      0.739925845579      1.549378577245
H      3.605260222301      0.495413507574      0.035226493735
H      0.307040124494      0.498008054632      0.935413846007
H     -0.608759765094      2.062558103739     -0.788522726505
H      0.087972923434      1.057395550267     -2.061225668137
H      1.150747651774      1.925021031045     -0.954455096939
H     -4.127864321394     -0.007836485766     -0.692122170321
H     -4.117558020671     -0.572323875985      0.977803555577
H     -3.413055502681     -1.575672292648     -0.294412300951
