22
OptimizedStructure
C     -3.373844429186     -0.894537607469      0.823208376341
C     -2.329166741855      0.130557382335      0.557757916005
C      0.075170922165      0.676221873576      0.413135566085
C     -0.087784888605      1.663930750966     -0.728815094424
C      1.394946580917     -0.065433171053      0.400284304091
C      3.354874279052     -0.911924578756     -0.778422893832
N     -1.018708744813     -0.285445096925      0.447541628811
N      2.167324629429     -0.098489389847     -0.738200812774
O      1.736080372923     -0.642559494975      1.412743015701
O     -2.644171702353      1.299249517324      0.453564194794
H     -0.739726105842     -1.227162311210      0.727448325600
H      1.813353821632      0.237371336828     -1.637771002419
H      4.148655645326     -0.420099515905     -1.340259640291
H      3.138612401196     -1.879898739306     -1.229395810713
H      3.701298022907     -1.079043839113      0.241554389656
H      0.027104668299      1.221499393472      1.369846689955
H      0.739057377878      2.373306444662     -0.769330931265
H     -1.018618479497      2.222392371340     -0.618738856734
H     -0.141489818230      1.139824774044     -1.681713751945
H     -3.774467330326     -0.772895007400      1.828570420075
H     -2.973156298333     -1.903052963383      0.730059176949
H     -4.195344182684     -0.783812129204      0.116934790334
