22
OptimizedStructure
C     -3.109245227777     -1.148737279368      0.521331978181
C     -2.011890351152     -0.165277335088      0.716572842760
C      0.018942936857      0.924342215025     -0.151491825065
C     -0.085347555144      2.173436672906     -1.002856891948
C      1.268978407244      0.143936796741     -0.474012795115
C      3.120528847501     -1.237156612592      0.308305319717
N     -1.144267612402      0.068983807564     -0.326592135504
N      2.010836570654     -0.358170312715      0.569280227359
O      1.572941951753     -0.037640975155     -1.634438863615
O     -1.888915564640      0.407497405442      1.781116452619
H     -1.151237814954     -0.492626111013     -1.179312823516
H      1.648180010448     -0.342573018673      1.526665547586
H      3.491166246079     -1.047050233546     -0.698955193559
H      2.802608179460     -2.277733555128      0.365742188070
H      3.930692149050     -1.066647178171      1.016980246914
H      0.042411528348      1.201462887645      0.914754538732
H      0.763526200530      2.838119750121     -0.840545463378
H     -1.003788505067      2.720137924518     -0.788134021893
H     -0.093650644237      1.898701182242     -2.057331813336
H     -2.956961445779     -2.015979691843      1.162181607528
H     -3.159402839308     -1.487450799722     -0.512628632737
H     -4.066105467466     -0.699575539188      0.783369510200
