22
OptimizedStructure
C     -1.562383062108     -0.938703139067      2.389764454729
C     -2.251995275823     -0.197869998389      1.297194557040
C     -0.047286080967      0.433260647769      0.213514196307
C      0.392112807842      1.699762647062     -0.501838942371
C      0.422982450452     -0.888520876230     -0.381348022768
C      2.220338811589     -0.053760961813     -1.966179249066
N     -1.515407163448      0.424539957251      0.310684107280
N      1.245197670832     -1.028058180702     -1.493381326578
O      0.024901458110     -1.892090847729      0.178867747114
O     -3.467242965044     -0.143436544151      1.289415903484
H     -2.003434873544      0.812211385648     -0.494707661123
H      1.473634285107     -1.984227754172     -1.763413494727
H      1.726419621572      0.760474395124     -2.491430759322
H      2.921688212253     -0.509763471683     -2.665275960176
H      2.796813375701      0.340468151141     -1.131128684542
H      0.334655852738      0.465400314528      1.244329223800
H      1.470952625479      1.843181804828     -0.468314604814
H     -0.064360891027      2.575333003879     -0.039064178590
H      0.066607154556      1.683913274448     -1.540897880138
H     -0.893491166762     -1.694154353585      1.978219026804
H     -2.300356326888     -1.444910512037      3.010988077768
H     -0.990346520620     -0.263048942122      3.024003469888
