22
OptimizedStructure
C     -1.461169942555     -1.456822676010      0.503939119055
C     -2.076438468746     -0.162186690993      0.905272943771
C      0.069852719394      1.235570823594      0.658903669168
C      0.036523089343      2.167966919468     -0.540238055471
C      0.885315135720     -0.016466453412      0.419646412372
C      2.044897099160     -1.553365347347     -1.087743559924
N     -1.307520007616      0.967170807137      1.135019874810
N      1.187431550018     -0.417292844644     -0.862081153067
O      1.248062533522     -0.665133169816      1.380332517170
O     -3.285572168814     -0.109044430545      1.036382657443
H     -1.807570418581      1.819542133884      1.380236008629
H      0.951301890605      0.150258218549     -1.679781920522
H      3.025842656521     -1.229744833357     -1.434538664403
H      1.609156148032     -2.231386871853     -1.821136157030
H      2.174613129621     -2.092111660867     -0.149058178173
H      0.576954010789      1.748828928730      1.493122237588
H      1.040315089449      2.391948445985     -0.902157650014
H     -0.451780462155      3.110839752639     -0.292987646102
H     -0.529643880851      1.718413234793     -1.354986401507
H     -1.077746837249     -1.407514050768     -0.514029561020
H     -2.207358785697     -2.249121100850      0.548473844206
H     -0.645464079911     -1.720349134317      1.177409663018
