22
OptimizedStructure
C     -2.429881615269     -1.574658262232      0.471353370015
C     -1.503427513267     -0.528911647555     -0.042928388376
C      0.200498194460      1.238134726656      0.554415404935
C     -0.057208290836      1.888292776990     -0.791537343030
C      1.661583589723      0.875628856770      0.736128674114
C      1.537527421445     -1.109237962462     -0.795666387545
N     -0.689568572301      0.110418389163      0.870027841825
N      2.218248668667     -0.237185851479      0.142605806189
O      2.338860840615      1.619501697044      1.420455485250
O     -1.478920616626     -0.293228462758     -1.234017863796
H     -0.678564488193     -0.179419394453      1.848750241117
H      3.222129256395     -0.388593932424      0.247218524341
H      1.376131710469     -0.598578628137     -1.743053417462
H      0.575014405106     -1.410797837033     -0.392481546408
H      2.117616264154     -2.011843041163     -0.986771404023
H     -0.007001985613      1.997644896764      1.328819409358
H      0.605179203169      2.737987376551     -0.960415569401
H     -1.090617582830      2.227477723632     -0.868227476179
H      0.097153920613      1.171896014717     -1.596052326383
H     -2.512838459259     -1.533612590268      1.556555327991
H     -2.079194229896     -2.566071253751      0.188496875917
H     -3.422720120725     -1.434843594572      0.046324761551
