22
OptimizedStructure
C     -3.489429408354     -0.966103840355      0.092666368950
C     -2.346723346743     -0.103117532825      0.491927380266
C      0.025292764495      0.495281431218      0.225876778430
C     -0.216783349243      1.858672102314     -0.388888740877
C      1.273957080589     -0.138358720705     -0.331765940214
C      3.610232668029     -0.782738002118     -0.037710004079
N     -1.097647573059     -0.391427144152     -0.013663081349
N      2.423578704264     -0.108278462034      0.420892247961
O      1.226763469113     -0.643935661631     -1.433379792521
O     -2.525119670347      0.839775116274      1.237347434776
H     -0.956739282466     -1.043433604516     -0.788857154005
H      2.421095883779      0.233503781732      1.386222069164
H      4.498965541835     -0.179144468172      0.145014170797
H      3.523162365213     -0.959752548553     -1.109765732079
H      3.718192820547     -1.745194958290      0.461436824412
H      0.123068892986      0.586278108286      1.318242923715
H      0.610638557328      2.540684902172     -0.191839792529
H     -1.134635140734      2.298868361224      0.003439421666
H     -0.324764499973      1.763078413482     -1.468869903939
H     -4.046687254203     -1.280246083201      0.974010515691
H     -3.147861846168     -1.856477721645     -0.433645525941
H     -4.168557376891     -0.417933468505     -0.558690468293
