22
OptimizedStructure
C     -1.891579281606     -1.337983125994      1.087437338036
C     -1.802742570285     -0.655963242712     -0.233594688099
C     -0.145297985119      1.046182339316      0.540815336668
C      0.072372224856      2.544787588488      0.471525425642
C      1.114588261206      0.307486745333      0.145642432527
C      2.191086464128     -1.426281175341     -1.197357831887
N     -1.270063547695      0.625690538874     -0.308608502229
N      1.048262107067     -0.612316959029     -0.875669540082
O      2.148909679197      0.542582665801      0.736727184262
O     -2.151462666087     -1.241190998860     -1.242543886008
H     -1.188921001596      1.028928277941     -1.238297257380
H      0.136155525642     -0.915438660011     -1.250859958171
H      2.266527633965     -1.583546585869     -2.273146855153
H      2.124277240330     -2.390744669968     -0.694823633564
H      3.092656489454     -0.919673760952     -0.852767385606
H     -0.387013365565      0.762167632161      1.574862328717
H      0.900009369452      2.848168147032      1.113903913495
H     -0.822117542238      3.090345919593      0.772601034897
H      0.320742921641      2.843864914302     -0.546188773656
H     -2.213729359521     -0.646372074144      1.864705978009
H     -0.927895525170     -1.759941117365      1.370172441696
H     -2.614765072055     -2.150752398599      1.035464897887
