22
OptimizedStructure
C     -2.599516869951      0.394776641172      0.787057935712
C     -1.403561717354     -0.471479464002      1.006243243401
C      0.249667328807      0.333960705573     -0.742322080136
C     -0.337860735230      0.714371378707     -2.088349473518
C      1.698215484284     -0.091728447544     -0.875510563053
C      1.821478202642     -0.483375917955      1.586363820736
N     -0.522663063031     -0.737570159902     -0.088914227261
N      2.387489380739     -0.485769079749      0.250781111956
O      2.227123514646     -0.077465933839     -1.969809781666
O     -1.189908600663     -0.907450148499      2.125055216943
H     -0.760959266656     -1.459138748879     -0.776989147075
H      3.372251178712     -0.740471624788      0.163695511230
H      2.434344635539     -1.059201287407      2.279332596885
H      0.827511393625     -0.927343235574      1.562474680195
H      1.737050473482      0.536731584756      1.957633497265
H      0.221138870217      1.204476861066     -0.069863499011
H     -1.374847139641      1.037915494177     -2.003330812109
H     -0.302127908207     -0.139416552336     -2.764212731031
H      0.239647949897      1.514603223307     -2.552260628945
H     -2.396662858102      1.415086576647      1.108715081373
H     -3.440874728604      0.018669321604      1.367120667334
H     -2.886935525152      0.409818813465     -0.262910419225
