22
OptimizedStructure
C     -3.008417979728     -1.158123538050     -0.318386768410
C     -1.955896965874     -0.246281582307      0.201813388868
C      0.267339216538      0.753505435425     -0.048062703396
C     -0.135381851040      2.133510366271     -0.523783162715
C      1.618131442180      0.352363687091     -0.604406402678
C      2.428357791752     -1.336000122185      1.038117898376
N     -0.725578352949     -0.237158566296     -0.418020066794
N      2.623113529557     -0.088080951133      0.308164512092
O      1.765706849268      0.406602662327     -1.810763762939
O     -2.189729762335      0.481476156730      1.146529313895
H     -0.576698158936     -0.674340799225     -1.328950633762
H      3.011268901335      0.606265862502      0.960126882638
H      1.668725867896     -1.225634986514      1.811485221434
H      3.359497572343     -1.669341648010      1.495562392844
H      2.098466338427     -2.106152785528      0.342644957163
H      0.320149602726      0.738836462620      1.051279745217
H      0.585228180037      2.890382143514     -0.213085048347
H     -1.118101220543      2.404436949983     -0.135499409908
H     -0.184775678418      2.146395356049     -1.612348353489
H     -3.801757218940     -0.586166299952     -0.797438835850
H     -3.448985053995     -1.726337126304      0.499563058515
H     -2.600663049300     -1.860156677008     -1.044542222755
