22
OptimizedStructure
C     -2.680298922910     -1.382233831382      0.431987484102
C     -1.499681058131     -0.506045970219      0.654199512769
C      0.243353279130      0.951709321730     -0.308194936296
C      0.095091650603      2.368313890594     -0.890344676415
C      1.350249371184      0.184187382734     -0.998149274887
C      1.939637499101     -0.987121852614      1.129783790396
N     -1.001361756717      0.204120970998     -0.416940385025
N      2.140648765817     -0.683414672958     -0.276211124794
O      1.501310954358      0.340520903879     -2.193222978264
O     -0.988877584234     -0.441657787782      1.755073554399
H     -1.289118522304     -0.002507008484     -1.374325856076
H      2.856827473651     -1.219726680090     -0.766988386900
H      2.539634919246     -1.841642426600      1.441547379968
H      0.892149785300     -1.222257339443      1.311505184741
H      2.217745811938     -0.131112276852      1.742453455240
H      0.472849833657      1.015917943947      0.766362301819
H      0.830944430319      2.536325010533     -1.678708521670
H      0.223790322054      3.148218154330     -0.137655695581
H     -0.891935088568      2.497071235422     -1.335251633266
H     -2.383567445684     -2.429927516190      0.448847574342
H     -3.154069580128     -1.172343373573     -0.526058180187
H     -3.415324137683     -1.226394077979      1.220291411587
