22
OptimizedStructure
C     -3.062150625893     -0.787287072169      0.365114189590
C     -1.986086394082     -0.103143669549     -0.403792464882
C      0.171854870476      1.210266562330     -0.277017669329
C      0.215977833956      1.174671383432     -1.790723395666
C      1.467373012543      0.677896821136      0.285157058278
C      2.715996150895     -1.230885343983      1.160584862769
N     -0.964150851997      0.484597192004      0.312584420239
N      1.484418589374     -0.619988181191      0.729539500576
O      2.451735447809      1.388677411040      0.305816656880
O     -2.049280190342     -0.090767533200     -1.616033084795
H     -0.952111878111      0.442453791827      1.332319863596
H      0.666070370764     -1.228896478912      0.593454108504
H      3.436402533578     -0.446155349748      1.391698879543
H      3.129214281650     -1.854493946961      0.368542882202
H      2.560618440684     -1.836121206013      2.053281104596
H      0.080585823645      2.258093697737      0.051741793958
H      1.067048037992      1.734162275918     -2.180665562776
H     -0.703003731045      1.578999066871     -2.216888562670
H      0.298943783245      0.143537720880     -2.133355146237
H     -2.888590530106     -0.724401757841      1.438435390720
H     -3.113855006805     -1.838384680665      0.085124502580
H     -4.027009968231     -0.332830702943      0.145080672326
