22
OptimizedStructure
C     -2.152852740971     -0.935985431647     -0.287991963823
C     -1.452070222530     -0.383040275326      0.909144557361
C      0.128094126505      1.367659174319     -0.090276796335
C     -0.428107423872      1.642140369907     -1.473588024150
C      1.276709125501      0.382520878530     -0.154535505665
C      2.422802954667     -1.554389484216      0.775929750426
N     -0.920477045073      0.943832681474      0.869769246608
N      1.438706418934     -0.510450076349      0.879520431159
O      2.037784119705      0.414659755282     -1.100540683572
O     -1.328182307583     -1.095316099093      1.892224159765
H     -1.568539764333      1.727976662980      1.008256306411
H      0.639741576232     -0.701877948087      1.509219085233
H      3.257574097811     -1.192527801128      0.175695552753
H      1.997913253259     -2.428687887571      0.283468051817
H      2.794234120157     -1.838118945421      1.760536679677
H      0.557296250206      2.300266168992      0.311595328173
H      0.349849757388      2.030155461534     -2.132436012083
H     -1.247272344114      2.360709099924     -1.443024722216
H     -0.797984718092      0.724211288282     -1.926262740821
H     -2.655241386752     -0.149065999496     -0.848389141599
H     -2.902454208670     -1.660858044237      0.025985123874
H     -1.447523638376     -1.443813548652     -0.944298682992
