22
OptimizedStructure
C     -2.171238623379     -1.715487628859      0.816867007393
C     -1.384748454801     -0.582175751874      0.256438055035
C      0.288296351501      1.225861469871      0.717984793361
C     -0.181073754565      2.005176670609     -0.496329677554
C      1.681594069242      0.638404422318      0.546862645561
C      1.424756178555     -1.071837239796     -1.269254648843
N     -0.650336775907      0.183047844011      1.139780097444
N      2.088100447196      0.098855659994     -0.711080663483
O      2.402111016296      0.646792113813      1.529087477239
O     -1.402414940187     -0.383002352761     -0.941464125018
H     -0.500755909343     -0.144881927667      2.095221553899
H      2.336877588923      0.749629883105     -1.468287190294
H      1.207573922429     -1.774125490137     -0.466277587684
H      2.066164712660     -1.572033240964     -1.994076396561
H      0.484772395144     -0.802538098121     -1.749304341410
H      0.363664935002      1.931532501917      1.562850736307
H      0.521657970481      2.794395997204     -0.764840788398
H     -1.157405803097      2.455389382913     -0.316469449276
H     -0.289040724564      1.342381534185     -1.352989035840
H     -2.298671265296     -1.614775540126      1.893881361972
H     -1.672176623576     -2.662037237397      0.614635237860
H     -3.157706712716     -1.748572972238      0.356764938288
