22
OptimizedStructure
C     -2.742071929786     -1.367435646941      0.304318005477
C     -1.640041481347     -0.430997165499      0.651371049617
C      0.028779038695      1.217978498385     -0.110681022181
C      0.034669004986      2.456723753219     -0.985775435940
C      1.271949401001      0.382372872101     -0.319863306491
C      2.631162217620     -1.490223038866      0.464130077048
N     -1.158268517746      0.403281077182     -0.336031621981
N      1.534651620552     -0.571297488787      0.630947848708
O      1.973884068766      0.545803863615     -1.296168018377
O     -1.179775182087     -0.429864401571      1.776689279869
H     -1.385349580515      0.241849399890     -1.318341507059
H      0.824390084411     -0.775662244760      1.346839111087
H      2.700790996467     -1.776546199497     -0.584960822514
H      2.501773135557     -2.387445873182      1.069544769048
H      3.562136243674     -1.000612770252      0.746799082350
H     -0.003460416022      1.513571178552      0.950375176028
H      0.900054210665      3.084976858626     -0.773245508609
H     -0.870365736922      3.047833550763     -0.845089225506
H      0.092599850624      2.167970923798     -2.034735350667
H     -2.365793332858     -2.387154285688      0.236769772665
H     -3.200572816406     -1.103684074887     -0.647803506282
H     -3.511140879327     -1.341438786201      1.074911153710
