22
OptimizedStructure
C     -1.753758498663     -0.700224766203     -1.260062060040
C     -2.407824744034     -0.295416586310      0.015872269863
C     -0.243047221144      0.494055177103      1.103441931743
C     -0.140779910435      1.897848244053      0.526500809950
C      0.661166411484     -0.508839223801      0.414645943433
C      2.807774119094     -1.047181329981     -0.610749581811
N     -1.655951902377      0.058437416258      1.122878285568
N      1.868895272700     -0.084928973141     -0.094659312515
O      0.328738726051     -1.673660299221      0.336019748093
O     -3.623483329722     -0.290026559684      0.075559418141
H     -2.167304939378      0.365198364006      1.949578616709
H      2.249968395197      0.836385615319      0.135836141258
H      3.523821816575     -1.331570446630      0.159761841516
H      3.342984940688     -0.649924616062     -1.472937029427
H      2.265058523614     -1.941077171126     -0.917859301876
H      0.088007225530      0.517520727598      2.154690891009
H      0.852472646603      2.326326932130      0.657258212938
H     -0.856414480421      2.565394898606      1.006785575131
H     -0.365134932824      1.894329040859     -0.538610818367
H     -1.085834304962      0.074199265928     -1.631896248939
H     -2.511032839200     -0.892632485099     -2.019051502084
H     -1.178320974374     -1.614213224602     -1.113003830293
