22
OptimizedStructure
C     -3.190797738442     -0.952624942838      0.412481283152
C     -2.046898085070     -0.028861999876      0.630783507305
C      0.079668580987      0.917066464290     -0.174215733792
C      0.085416998647      2.145552980412     -1.061190248148
C      1.294320921903      0.057176977788     -0.420894702742
C      3.026435181741     -1.405570887089      0.477898612489
N     -1.123249768381      0.125507700272     -0.378614789694
N      1.960173959659     -0.457125426782      0.666790247932
O      1.636359988428     -0.174324112026     -1.561670643486
O     -1.936062171876      0.565708698009      1.684656361293
H     -1.126775299344     -0.458624698780     -1.216089426235
H      1.558515580672     -0.393620200653      1.606464460001
H      3.450263017491     -1.265670827534     -0.516527856476
H      2.645766770383     -2.424076781487      0.547969676782
H      3.814223357970     -1.262024050312      1.217115720615
H      0.073813746912      1.222374624958      0.884547951560
H      0.964171723202      2.764568533949     -0.878583658279
H     -0.807644788502      2.750080948206     -0.901476328063
H      0.106034032188      1.842083868363     -2.107587559370
H     -3.216560345579     -1.316949038568     -0.613638978993
H     -4.129932585097     -0.441892359297      0.620257017298
H     -3.117243077893     -1.808755471006      1.081525086851
