22
OptimizedStructure
C     -3.001270200401     -0.838098372243     -1.183566897645
C     -2.068448452359      0.073219599208     -0.463324144147
C     -0.137168374236      0.180128309641      1.132320828452
C     -0.128179636034      1.688307346147      0.965424106628
C      1.061619764279     -0.521148570258      0.531699459022
C      3.236523293295     -0.485185148308     -0.569072221621
N     -1.328472807261     -0.465384784496      0.576739047452
N      2.164396110385      0.189190979083      0.115443698562
O      1.010437355748     -1.730857427855      0.440352809071
O     -1.984915864266      1.230770152736     -0.821073763175
H     -1.227339266295     -1.483042638687      0.632676940878
H      2.153919571868      1.210456707227      0.050602130723
H      3.221805074860     -1.539644562349     -0.293331094320
H      4.203990110795     -0.065717474517     -0.293927522519
H      3.103757284970     -0.411767627902     -1.648049911372
H     -0.135658911833     -0.050997439465      2.210163511417
H      0.726324838914      2.153630795285      1.457017216276
H     -1.040672881250      2.124538994895      1.372410822967
H     -0.104353054011      1.942966270210     -0.094082340623
H     -2.584727261665     -1.117776931638     -2.150154320343
H     -3.952871023827     -0.337770052698     -1.356799442919
H     -3.188695671675     -1.745818124016     -0.611468912764
