22
OptimizedStructure
C     -2.233922128898     -1.003723547958     -0.612429620086
C     -2.259905360426     -0.223840166329      0.662120641563
C     -0.004816201466      0.942989148076      0.622737198032
C     -0.630186854667      2.037109737903     -0.221027252230
C      0.904911106970      0.067889109357     -0.202919098581
C      2.985164890327     -1.199793011385     -0.379672217413
N     -1.032020625688      0.127737316803      1.303262307906
N      2.126801166873     -0.280853677427      0.321909024006
O      0.535415209383     -0.321156164856     -1.291124217414
O     -3.345354277726      0.083547852135      1.122270062606
H     -0.544527868496     -0.601382723874      1.837797028114
H      2.381864505706     -0.043366020130      1.284858452061
H      2.684841726205     -1.233769176682     -1.426907379580
H      2.892253701399     -2.202123367074      0.037165906835
H      4.026093001087     -0.881654726184     -0.326161169668
H      0.600563259313      1.413753231921      1.413612375341
H      0.126736824438      2.699431320385     -0.642046662277
H     -1.330832343931      2.632372025283      0.365253211145
H     -1.179794449499      1.598995061965     -1.052900239410
H     -2.815997857925     -1.917305633856     -0.503170603080
H     -1.216783739050     -1.273524318781     -0.890765026813
H     -2.670503683931     -0.421332269292     -1.421862721058
