22
OptimizedStructure
C     -2.526990155500     -1.557524756701     -0.121119815752
C     -1.532033433456     -0.558649421982      0.350160048880
C      0.267101913318      1.050275966117     -0.203829766064
C      0.007295597553      2.384235356921     -0.878216678313
C      1.649584294195      0.528076092251     -0.534658311260
C      1.578845769841     -1.120357257092      1.354985477688
N     -0.740714846440      0.069433888595     -0.585460694179
N      2.255842922014     -0.397279310527      0.291358968912
O      2.197810636865      0.927365495892     -1.543289036097
O     -1.420796067435     -0.323898156818      1.537480976844
H     -0.760666402825     -0.183790904968     -1.574063600432
H      3.157596892314     -0.779899592301      0.006855307778
H      2.171208708728     -1.097161692655      2.268899141920
H      1.416150630451     -2.157995596760      1.065729525022
H      0.609139531454     -0.678750907924      1.567921865075
H      0.190090945037      1.184150139268      0.885979016385
H      0.731609165075      3.135290727150     -0.561734467007
H     -0.996302887112      2.750075335038     -0.660356261733
H      0.102183454009      2.274325087016     -1.958131008294
H     -3.501392507648     -1.351534515467      0.319447177315
H     -2.227211971409     -2.561007464215      0.177381699934
H     -2.628352189029     -1.535378510839     -1.205339566621
