22
OptimizedStructure
C     -3.549613200719     -0.719906382890      0.005737820122
C     -2.363126418759      0.078645625885      0.411318494804
C      0.052415947437      0.501389413393      0.206946452500
C     -0.073300245935      1.851282607986     -0.469334090659
C      1.271401710221     -0.239106942780     -0.280256432251
C      3.545911546981     -1.029276994146      0.122374194357
N     -1.121289674727     -0.315488420308     -0.037495825721
N      2.394872675755     -0.256479666102      0.511286543213
O      1.225300171137     -0.785852325381     -1.362075491024
O     -2.499608910629      1.061876203337      1.112141580180
H     -1.000854401127     -1.007444991664     -0.780856432316
H      2.384480181990      0.124706442299      1.461692776431
H      3.482072869039     -1.244534663132     -0.944305152562
H      3.569755361216     -1.975176487002      0.662585797974
H      4.468182158156     -0.480932202423      0.312875877394
H      0.120253173094      0.631039459961      1.297677073989
H      0.792854519523      2.482607663202     -0.269831389233
H     -0.970545832575      2.369373158573     -0.127751615287
H     -0.152041740839      1.718267399677     -1.547881306857
H     -3.253997845211     -1.652828190393     -0.472494551725
H     -4.166874899719     -0.154182047363     -0.690620304145
H     -4.156247144307     -0.957978660728      0.878265980816
