22
OptimizedStructure
C     -2.395410594083     -1.265252234065     -0.499511537291
C     -1.288216836064     -0.271601145833     -0.542021846158
C      0.381872328314      1.067838252671      0.729809726173
C     -0.192027282298      2.348135904958      0.151472586535
C      1.728021170242      0.776835255088      0.084406856103
C      1.426362680831     -1.717762278787      0.025893590295
N     -0.593237028239     -0.025671535145      0.622914484832
N      2.187688492680     -0.500588256231     -0.165643578796
O      2.431732484341      1.733708666259     -0.180672371721
O     -1.036600026679      0.297956680820     -1.584630744146
H     -0.931926815677     -0.405620219214      1.509601561188
H      3.072141902372     -0.603329274967     -0.665230988546
H      0.652025039925     -1.788141483584     -0.736357288722
H      0.959500476565     -1.714066268408      1.008678079215
H      2.063716593718     -2.599071932825     -0.043347963965
H      0.586171993955      1.226163284316      1.801298049307
H     -1.130487093467      2.621429311949      0.633766478741
H     -0.388097143121      2.204454540296     -0.911796666849
H      0.514057065517      3.173871463414      0.248804622798
H     -2.358555879376     -1.863557899008      0.409868234153
H     -2.329624428801     -1.935795743485     -1.355076682273
H     -3.359107100654     -0.759935088221     -0.542224600873
