22
OptimizedStructure
C     -2.734038721109     -0.961576723433      0.488182595621
C     -1.302091754858     -0.746567895005      0.135543039516
C      0.468475457767      1.036523362298     -0.298772311908
C      0.186294396121      2.090457299621     -1.355321957806
C      1.390226075036     -0.024769287132     -0.874073246944
C      1.737715731526     -1.055237361430      1.367318206007
N     -0.806224032944      0.537430328983      0.256841596537
N      2.076876000760     -0.878221261218     -0.032314392793
O      1.535454232191     -0.085140515933     -2.079680295226
O     -0.645515728216     -1.704342370340     -0.216950643601
H     -1.442048228193      1.292240892001      0.516346177855
H      2.556218752682     -1.671614491874     -0.459847710523
H      1.669529594340     -0.092766428779      1.869665006267
H      2.489516323378     -1.653575824943      1.881359725780
H      0.775306236120     -1.560263790723      1.443345616690
H      1.008808975431      1.509113119848      0.536146553828
H      1.112002989565      2.512990659273     -1.747090577555
H     -0.431924277546      2.900472953484     -0.968118147688
H     -0.339130905019      1.630100651314     -2.191815054078
H     -3.265819415663     -0.017385807524      0.596460913167
H     -2.815200472715     -1.513799493127      1.423202037825
H     -3.224431228652     -1.544068015362     -0.290427130972
