22
OptimizedStructure
C     -3.117583333366     -1.010696755395      0.424979933335
C     -2.095131822759      0.051341280055      0.618302013343
C      0.136396744567      0.942062219733      0.111647168327
C     -0.277612702416      2.078849311263     -0.800940628246
C      1.510815514497      0.416018947792     -0.231753120258
C      3.136209162375     -1.393758085261      0.008132896075
N     -0.841030508517     -0.136779853345      0.079628453748
N      1.877545574704     -0.776055026686      0.339811517197
O      2.246578331500      1.034217774218     -0.974094096385
O     -2.377539069835      1.064055667125      1.227477203562
H     -0.666135160752     -0.863815297000     -0.616504007612
H      1.206404892232     -1.316834650383      0.894863410992
H      2.986315861417     -2.212749297338     -0.694519161716
H      3.633163392414     -1.770467519384      0.901760452377
H      3.780301432034     -0.650299543315     -0.461662052326
H      0.161172911572      1.300522416460      1.153142595085
H      0.445856755422      2.894015009039     -0.764951421722
H     -1.259616914289      2.463310947893     -0.521603909015
H     -0.329748135224      1.728797158981     -1.831126251570
H     -3.595962033373     -1.246171195775      1.374563003843
H     -2.671984152255     -1.922345481655      0.029163328895
H     -3.888416739950     -0.673218027022     -0.266317327931
