22
OptimizedStructure
C     -2.615247614969     -1.226605159696      0.705746976623
C     -1.389720034155     -0.389542680015      0.800989461633
C      0.249483340061      1.051208567056     -0.331416442458
C      0.158126072242      2.396039538349     -1.024227251652
C      1.249827805391      0.148464995467     -1.026627470346
C      1.843161757996     -1.506107556109      0.737570830237
N     -1.041734277605      0.386192798615     -0.285564034401
N      2.247580139806     -0.500048314445     -0.238198473344
O      1.133795524676      0.006751091288     -2.229299329462
O     -0.714546352925     -0.413329341562      1.811246928276
H     -1.450049023699      0.214351607354     -1.205299857640
H      2.966458891595      0.092577385541      0.197785613863
H      1.309824604615     -1.048072353970      1.570955452563
H      2.703865709217     -2.055949382354      1.117156418083
H      1.170861451659     -2.214633624726      0.256542077902
H      0.568488446982      1.187544748021      0.713625260280
H      1.117140881978      2.914630498450     -1.015545983947
H     -0.587799038251      3.034672438860     -0.550945114790
H     -0.129962140777      2.254305737002     -2.065610690050
H     -2.349766545568     -2.276119343655      0.587341795660
H     -3.232561703962     -0.928510163235     -0.140681393436
H     -3.207227894307     -1.127821486237      1.614455226404
