22
OptimizedStructure
C     -1.267343005122      0.242107653501      2.147260955681
C     -1.261160650824     -0.861849010165      1.148160764512
C     -0.230697724598      0.635929363760     -0.608848916868
C     -1.239452098089      1.429412410508     -1.415288595351
C      1.013335109253      0.329626623097     -1.426898436898
C      2.178477596503     -1.349448615191      0.000440316874
N     -0.811014732677     -0.623612523597     -0.133008257287
N      2.185328162531     -0.083974579054     -0.724954054104
O      0.947440923680      0.414670578492     -2.639463895029
O     -1.642863571502     -1.968920481867      1.477676186690
H     -0.833975116811     -1.372337010948     -0.820956796398
H      2.665974141325      0.616579669349     -0.144803941820
H      1.527227772787     -1.297383916569      0.872465002441
H      3.183605123652     -1.625640333074      0.318178420091
H      1.804463873774     -2.132955221773     -0.656932250840
H      0.088213089835      1.216924570963      0.267723520145
H     -0.819343602551      2.377451816360     -1.752285305796
H     -2.144423769310      1.628865471828     -0.841418081646
H     -1.521060341956      0.864042898524     -2.303427670195
H     -1.703392802922      1.149435835416      1.731522730073
H     -0.257731669256      0.461114670109      2.492569803919
H     -1.861606707723     -0.050039869672      3.012288501807
