22
OptimizedStructure
C     -2.772689036633     -1.309381043001      0.227926759410
C     -1.370529160611     -0.806403641253      0.174606040977
C      0.069820492515      1.303534339844     -0.004727576970
C     -0.081339442281      2.235477712212     -1.193594740100
C      1.314107199221      0.450720203999     -0.173639925009
C      2.664482049158     -1.405405743465      0.592838358889
N     -1.192185680180      0.562875274753      0.212057839009
N      1.665271195174     -0.403699349135      0.849594358221
O      1.989856168722      0.552353416719     -1.178162529835
O     -0.471798100785     -1.619237253743      0.114005729469
H     -2.010339758154      1.172602974758      0.223445959124
H      0.931920057703     -0.703820066049      1.506532213839
H      3.448080063714     -0.971994354904     -0.028224928064
H      2.215217712887     -2.236093187163      0.047377332041
H      3.106887605891     -1.771643595501      1.519081649530
H      0.230802096128      1.903336953912      0.905620471062
H      0.823274445360      2.824615759597     -1.347261405460
H     -0.925557360219      2.914574729495     -1.073615410183
H     -0.243062553935      1.647904717340     -2.096828107671
H     -2.940989866613     -1.859114460780      1.152719577123
H     -2.957892284177     -1.986569802851     -0.604523414361
H     -3.493335842885     -0.494633584784      0.174771748960
