22
OptimizedStructure
C     -3.637314061954     -0.741905549851      0.122069744070
C     -2.406491820639      0.029868726234      0.437670635189
C      0.038932736099      0.247773622610      0.244639272801
C      0.007223063500      1.503177512839     -0.601958584336
C      1.200552969982     -0.644095172586     -0.136746123593
C      3.569447203442      0.027973958901      0.088376257018
N     -1.186025733308     -0.513032858760      0.097633322933
N      2.383781979465     -0.610016084010      0.652684249444
O      1.068184725817     -1.344002233282     -1.122046143573
O     -2.489235148564      1.118500437682      0.970949321010
H     -1.096076987033     -1.315165876574     -0.535007871192
H      2.701519583765     -1.521093048474      1.001379882021
H      3.883973727926     -0.490671519446     -0.817302526228
H      4.393026861290      0.039138155753      0.802306179309
H      3.336007304988      1.057877010276     -0.175417043690
H      0.126615647901      0.509400266046      1.310136635581
H      0.912113413186      2.097672261449     -0.475770113930
H     -0.854150027845      2.119360668597     -0.340069080027
H     -0.078511828512      1.237073472283     -1.655042256217
H     -3.398047830370     -1.757489412123     -0.190674156052
H     -4.194912803133     -0.255589262656     -0.677033326416
H     -4.280612976003     -0.794755074907      0.999221725878
