22
OptimizedStructure
C     -1.728596323066     -1.790371628356     -0.239159484253
C     -1.738885893512     -0.427071809299      0.367377539143
C     -0.108516595221      1.348549614330     -0.271018976928
C      0.183510483880      2.324427499689     -1.393086414022
C      0.981274294430      0.307094404064     -0.164781747548
C      2.107030339682     -1.366393225351      1.205716981148
N     -1.413778851993      0.682632405515     -0.464283197965
N      1.197104331355     -0.259521423163      1.070283036231
O      1.609479248106     -0.023124091017     -1.149090639554
O     -2.007692055392     -0.300372535380      1.548147536802
H     -2.096744823238      1.446238749800     -0.475057323249
H      0.507689951856     -0.141869856924      1.817878256202
H      2.841350920262     -1.319259772229      0.401631891519
H      1.572542838637     -2.312536805203      1.127456194763
H      2.630864407249     -1.325858494019      2.160503520639
H     -0.148397295781      1.882190091328      0.692304515411
H      0.235878090395      1.785389145360     -2.338707898904
H      1.143243211760      2.820250921413     -1.245425811681
H     -0.592003101684      3.085677108246     -1.478858679080
H     -1.341300083510     -1.754645714111     -1.256784975041
H     -2.735603892102     -2.203796030687     -0.261399843021
H     -1.098449202114     -2.457628554007      0.346355519388
