22
OptimizedStructure
C     -1.859090231076     -0.985238760632      1.357956479262
C     -1.853592995420     -0.150711310722      0.124138329126
C      0.504493776056      0.641765548301      0.579843334410
C      0.869664813888      2.090219012560      0.849709713073
C      1.687140263131     -0.082525683700     -0.040000635682
C      0.386283696406     -1.182030987776     -1.905893844545
N     -0.725587670928      0.566814046779     -0.217725703743
N      1.589848461000     -0.911619750957     -1.140797170723
O      2.767457988808      0.087215146560      0.494104513505
O     -2.847755563263     -0.112178717105     -0.576204541622
H     -0.768174501555      1.212644107739     -1.002554259302
H      2.447035813624     -1.333258652128     -1.499682409889
H      0.067224077936     -0.284929951162     -2.433345161225
H     -0.413715627139     -1.504130307368     -1.243176394883
H      0.551640745205     -1.969984582803     -2.640566003276
H      0.307419335275      0.147364871090      1.541222912634
H      1.763757229333      2.156487531327      1.471222892392
H      0.056519820530      2.620153139842      1.346229525542
H      1.083641318183      2.604985176737     -0.086259361207
H     -1.010233116459     -1.667876334665      1.378206574072
H     -2.770106370081     -1.581555153294      1.392828470919
H     -1.833871263455     -0.361608388625      2.250742741162
