22
OptimizedStructure
C     -3.453194395212     -0.740178108242      0.341704328036
C     -2.253698640481      0.110390742969      0.559474035327
C      0.082450306166      0.631217874523      0.015109756936
C     -0.117889534567      1.883545691635     -0.853506436366
C      1.320748810222     -0.129651641841     -0.390627251826
C      3.439379548370     -1.165824869921      0.235528222442
N     -1.073743770724     -0.244648132871     -0.055606722228
N      2.301100287990     -0.342124544632      0.549736864875
O      1.415422717272     -0.532866523850     -1.530661504093
O     -2.326504905092      1.101663400104      1.258600106335
H     -1.033178384993     -0.958345653326     -0.785100589722
H      2.150210268008     -0.113194984035      1.536342998468
H      3.556523210868     -1.206978954549     -0.847404407208
H      3.287786463082     -2.180378800615      0.602739312904
H      4.351128712449     -0.756463494065      0.669975265756
H      0.175281519217      0.915185331378      1.075254958691
H     -0.134137930453      2.801947617405     -0.263747087936
H     -1.065439572744      1.822276461425     -1.389698965108
H      0.675034176767      1.970491465054     -1.598009318845
H     -3.195467137139     -1.663680652357     -0.175123808591
H     -4.193322057750     -0.205880121534     -0.252194069144
H     -3.908489691256     -0.996502102654      1.297214311296
