22
OptimizedStructure
C     -2.902087895789      0.367520098617      1.399282957399
C     -1.469778278145      0.014695307362      1.171275954326
C     -0.069980426094      0.556635294043     -0.856079395165
C     -0.435267901277      0.718575866061     -2.318066460095
C      1.327610259822     -0.002364399058     -0.703838617118
C      2.950989356622     -0.991415736443      0.835530736790
N     -1.058781649773     -0.296521712365     -0.160056680037
N      1.610279652941     -0.587555714077      0.501660283581
O      2.141017895564      0.087656372258     -1.600398942815
O     -0.711925568266      0.000343588272      2.125016276463
H     -0.737297662326     -1.253635542691     -0.333943437262
H      0.912507215301     -0.495907780095      1.257983756918
H      3.501097233125     -1.183538235013     -0.085553280034
H      2.944633946545     -1.899249513458      1.438266660797
H      3.458973055753     -0.197720568396      1.382407631321
H     -0.092034189001      1.537879873293     -0.357860564105
H     -1.429979071065      1.148708789144     -2.435597886975
H     -0.427519235110     -0.251703758325     -2.813225608424
H      0.286482015163      1.353952431757     -2.832567582223
H     -3.458944026533      0.351907029163      0.463406142666
H     -2.980451938943      1.362587159798      1.834258629175
H     -3.359542788512     -0.340848849846      2.088099424818
