22
OptimizedStructure
C     -3.446667688056     -0.442632567415      0.318875422850
C     -2.227121931870      0.396545741528      0.182458607839
C      0.182383023746      0.528797070528     -0.298177048467
C      0.042377419812      1.282733668545     -1.604143570618
C      1.354956713202     -0.426376222255     -0.338907209126
C      2.970629181266     -0.757489490103      1.495869359857
N     -1.014243241771     -0.232151332582     -0.001087005031
N      2.574225363943     -0.043712543847      0.286895505319
O      1.193475339865     -1.487421068435     -0.910114080657
O     -2.312721016646      1.608024823281      0.220369475725
H     -0.940093793417     -1.223267629532     -0.252760956680
H      3.401682454881     -0.048717406452     -0.320501620411
H      3.875483825246     -0.332811591982      1.930561890427
H      3.134419247913     -1.812762168479      1.277182117100
H      2.172414322669     -0.685192011581      2.232864606054
H      0.327271868903      1.234311874557      0.534064485883
H     -0.821361012221      1.948393027854     -1.571685168079
H     -0.105858660257      0.579499199327     -2.423088408893
H      0.931697505951      1.873959638962     -1.823606497122
H     -4.081326894671     -0.333913872805     -0.559399116150
H     -4.019984357000     -0.130471361614      1.190569140475
H     -3.191637671487     -1.495345777500      0.433760069705
