22
OptimizedStructure
C     -2.975298690536     -0.415173370063      1.107934299714
C     -2.219416649737     -0.711604895662     -0.146251584693
C     -0.115166196465      0.620946327631      0.208174134161
C     -0.412952952082      1.682054161795     -0.831617312736
C      1.370427822340      0.395984180928      0.326945705946
C      3.331871857629     -0.869810470287     -0.380397510204
N     -0.793590323032     -0.645227066328     -0.123776619670
N      1.904746189260     -0.678938413817     -0.339376028332
O      2.046992694879      1.165157197245      0.979033810672
O     -2.848884055370     -0.984008344628     -1.153107954039
H     -0.279345443157     -1.392701336919      0.367130474081
H      1.339689023633     -1.205381977980     -1.019730391526
H      3.747479079625     -0.437420882989     -1.290042322029
H      3.586238659300     -1.928461217363     -0.333727587228
H      3.779112681551     -0.364278485781      0.475598734889
H     -0.478984020792      0.953365209567      1.192349316714
H      0.088962953819      2.620585067530     -0.593719547918
H     -1.484141521592      1.868057426852     -0.912588670800
H     -0.063067135048      1.352440343391     -1.809371038888
H     -3.763892987809     -1.152642068983      1.249298573656
H     -3.439782441982      0.567855245029      1.049088362688
H     -2.320998544434     -0.440796629167      1.978153155540
