22
OptimizedStructure
C     -3.069031812701     -0.577980645472     -1.092944443270
C     -1.892110445951      0.126111806858     -0.511415182173
C      0.015722996795     -0.061244596498      1.080032344278
C      0.326973620417      1.410429052628      0.877799380879
C      0.929947900085     -1.093705749008      0.433561139913
C      2.778084161292      0.436334841211     -0.412248245421
N     -1.340398254896     -0.399328778336      0.646530918071
N      2.144983139539     -0.851663023574     -0.182857929217
O      0.516592030184     -2.236691019278      0.496653200782
O     -1.454771986595      1.108769831134     -1.075603710516
H     -1.539740560197     -1.377894930864      0.874633473858
H      2.630898154115     -1.649784516580     -0.591719529173
H      3.720274932868      0.316718296507     -0.947299507254
H      3.001437082020      0.923815359944      0.534200057776
H      2.137203703218      1.072887049882     -1.018572074319
H      0.050526492584     -0.264031164143      2.163738760684
H     -0.444688066842      2.025136675825      1.342174154953
H      0.315688641905      1.655772463615     -0.182867953828
H      1.283655902470      1.700928366632      1.308654066520
H     -2.763024263547     -1.182692137955     -1.945514667496
H     -3.805165771202      0.146650697995     -1.437805291038
H     -3.543057595561     -1.228537880522     -0.359128964008
