22
OptimizedStructure
C     -3.168218096585     -0.627575380515      0.561340720508
C     -2.123668402321      0.301650284766      0.055556682142
C      0.179808693996      0.660521753275     -0.717193216676
C      0.091653839353      0.564939880456     -2.249049050463
C      1.550744389314      0.290536960965     -0.198925722996
C      2.887572389221     -0.462589347032      1.703523958091
N     -0.834323306690     -0.164531622128     -0.075178436821
N      1.641163329623     -0.017625376066      1.134317042727
O      2.513615984035      0.279659775199     -0.938476287602
O     -2.416839474758      1.442554628597     -0.242339368806
H     -0.618542924068     -1.161557567216     -0.022089290640
H      0.791585910279     -0.087752176958      1.709383054417
H      3.699468588783     -0.191382016544      1.028592182374
H      2.887053496066     -1.545337698458      1.824119776880
H      3.065228347875      0.008834278366      2.669769544363
H     -0.030860254997      1.693691876644     -0.394878718416
H      1.034171140602      0.204366025666     -2.665029123354
H     -0.130005473234      1.528149059763     -2.712250492325
H     -0.693123517452     -0.131696916797     -2.545424765858
H     -2.730158225098     -1.554286768223      0.929606770780
H     -3.875251804262     -0.869352263445     -0.230882058296
H     -3.721074629681     -0.161217390317      1.375506799972
