22
OptimizedStructure
C     -2.151607524322     -1.303929171520      0.448050475192
C     -2.504729585509      0.060298152158     -0.050255880487
C     -0.208405745880      1.061745684039     -0.068229828163
C      0.441027578374      2.320420738131     -0.608868285764
C      0.673158978975     -0.139898677050     -0.285405057443
C      2.562598671220     -1.510896882241      0.434226538583
N     -1.504907393175      0.824547505049     -0.720401313082
N      1.634668489165     -0.430915694820      0.651496925996
O      0.510057368007     -0.805758121757     -1.286363080724
O     -3.634360488016      0.474721292550      0.140197495288
H     -1.239086072832      0.511075298855     -1.667166045532
H      1.812366139261      0.190904728009      1.445450870827
H      2.201202807562     -2.127800110357     -0.388597064462
H      2.650610296761     -2.133892024080      1.323939038835
H      3.545123420472     -1.123298547650      0.166666044398
H     -0.403109909114      1.170609047632      1.009166198563
H      1.389280815167      2.527308560163     -0.112193487215
H     -0.212833125503      3.183378733555     -0.481415205033
H      0.640733773066      2.209756977613     -1.674280624404
H     -1.308587045491     -1.713686210737     -0.107886337586
H     -3.001266888381     -1.974080408309      0.326991583517
H     -1.891934559807     -1.270610869232      1.504877038697
