22
OptimizedStructure
C     -3.342038395241     -0.423729928603      0.479818658085
C     -2.252315206486      0.426445594045     -0.067852597678
C      0.123653664367      0.761394451701     -0.550243016372
C      0.204699876256      0.433866286384     -2.026790003280
C      1.469852175421      0.597617668359      0.119827504228
C      3.047591651922     -0.700820457535      1.454324956189
N     -0.947308732192      0.018057463541      0.101129167542
N      1.736418888796     -0.509981266896      0.888723645592
O      2.308656805408      1.457684064387     -0.061872664170
O     -2.519480737076      1.450883446493     -0.664209920139
H     -0.733339132169     -0.942605576780      0.371525558262
H      1.087984206205     -1.299033668449      0.946625462826
H      3.618295084198     -1.416966503216      0.863985256116
H      2.982036203794     -1.051167273089      2.484157039686
H      3.576758653253      0.252295112762      1.444019181649
H     -0.155436399124      1.822334327255     -0.434642658959
H      0.968700747527      1.035302559935     -2.520925567474
H     -0.752677894759      0.616457578919     -2.516436013271
H      0.460229107532     -0.615511270013     -2.168559848971
H     -2.949786530220     -1.186714138615      1.150893242097
H     -3.881956940774     -0.915722251526     -0.327905505896
H     -4.050537096640      0.189913780940      1.034408123938
