22
OptimizedStructure
C     -1.651779351838     -1.523942638112      0.158207022870
C     -2.321767867432     -0.299497588763     -0.359496730955
C     -0.250185051413      1.150828284774     -0.046334478506
C      0.342995179550      2.402643993526     -0.719332472331
C      0.686937789356     -0.018443391108     -0.229211175424
C      2.362303788452     -1.519933919918      0.722857010917
N     -1.604990397558      0.865073848177     -0.558379207621
N      1.367150489664     -0.489144579255      0.870004772428
O      0.825685616779     -0.511030446441     -1.328747433878
O     -3.511303607494     -0.340042383563     -0.613233529503
H     -2.118377281207      1.689250811721     -0.865243368064
H      1.338685980377      0.004657879978      1.766459190370
H      2.226445841459     -2.008716090460     -0.241908768734
H      2.268243971315     -2.268478849265      1.509187755624
H      3.363634617794     -1.091312840195      0.751046428982
H     -0.363649422947      1.322563357871      1.035429124006
H      0.551509121501      3.203842858469     -0.008041715081
H     -0.333101829600      2.798322128904     -1.477558307012
H      1.277234490683      2.157104918716     -1.226884659855
H     -0.907143656284     -1.878312544504     -0.554870409860
H     -2.386834505751     -2.314356469122      0.304583438776
H     -1.161693915406     -1.331076341429      1.111467512851
