22
OptimizedStructure
C     -2.238613286834     -0.871420384511      0.979437613365
C     -2.245861615232     -0.451622701371     -0.449515272283
C     -0.170023806880      0.945882538658     -0.126850499647
C      0.123687462415      2.402025304451     -0.433026657020
C      1.026868811622      0.088031972228     -0.450625239140
C      2.650663774822     -1.603615158883      0.230677535268
N     -1.324911048291      0.474698264070     -0.899033753495
N      1.499917236839     -0.781822738554      0.502521695781
O      1.535997853503      0.181423579906     -1.547611800998
O     -3.067337814817     -0.933630888987     -1.206665342561
H     -1.219328933669      0.604344471566     -1.902488291742
H      1.113701362406     -0.806269047326      1.450867900133
H      2.865489667917     -1.564685127827     -0.837616735024
H      2.463672861377     -2.640387339325      0.509537027998
H      3.521522633034     -1.234506564194      0.771504055590
H     -0.404231006159      0.838441243461      0.940873863198
H      0.956485238905      2.775313119356      0.163546589807
H     -0.748010978476      3.029567596563     -0.246751812448
H      0.397317622968      2.508937554237     -1.482590116660
H     -1.303378402390     -1.367297569131      1.235448949243
H     -3.050742089809     -1.575386711223      1.157552893157
H     -2.382885543252     -0.018021413164      1.640807397478
