22
OptimizedStructure
C     -1.698905828977     -0.025312180592      2.118345715271
C     -2.110733857714     -0.760454975315      0.890660987093
C     -0.162938208314      0.175668100188     -0.425315502983
C     -0.572622171886      1.558388723927     -0.893494758509
C      0.724969478816     -0.476668343889     -1.457028258741
C      2.736393191720     -0.311323231853      0.018802729860
N     -1.331955278418     -0.684569449343     -0.244743493003
N      2.075912882821     -0.631436259845     -1.234277844296
O      0.194941818206     -0.844205757265     -2.485651620415
O     -3.124320723447     -1.432589518918      0.906314869781
H     -1.606796714978     -1.184076651011     -1.088878783772
H      2.629101616640     -1.136132315319     -1.927200504360
H      2.562327106476      0.731206879582      0.279971742918
H      3.813021727848     -0.464164136805     -0.053878016842
H      2.354155126670     -0.946669141766      0.816551667099
H      0.367295830086      0.231273752963      0.533948055532
H      0.293133959045      2.206797225269     -1.030274587494
H     -1.256791519227      2.035439277982     -0.192452279792
H     -1.083555670938      1.480784639688     -1.853191418095
H     -1.497414576513      1.023428568000      1.906777589178
H     -0.807987827428     -0.473183720649      2.556813768433
H     -2.497230360488     -0.072201485030      2.858199943140
