22
OptimizedStructure
C     -3.446999991677     -0.400367054394     -0.889232862728
C     -2.292275004314      0.204232496837     -0.172232697531
C      0.013657868432     -0.079465095261      0.670977985894
C      0.403038904584      1.372638950343      0.466792068741
C      1.099848541656     -1.137458876677      0.521966153909
C      3.059322121609      0.312698350513     -0.187773969897
N     -1.080502660983     -0.456490327084     -0.211439661803
N      2.453860672803     -0.907673691860      0.324851676269
O      0.700001592454     -2.284271113879      0.599824711189
O     -2.437780539141      1.247141606123      0.433547332040
H     -1.021547078653     -1.436114790024     -0.511280363983
H      3.042850554388     -1.732729362942      0.215202241355
H      2.562828594847      0.626808886744     -1.103866864938
H      4.112954161715      0.157213679477     -0.420559640191
H      3.007992014957      1.107127108016      0.552780742829
H     -0.383838347120     -0.191533404878      1.693580273177
H     -0.470325267232      2.013794028825      0.596959803761
H      0.762587381363      1.538515480485     -0.546510612512
H      1.158722182321      1.698368561459      1.180334746607
H     -3.131121216204     -1.229081525483     -1.521596151224
H     -3.931133750788      0.346672596337     -1.516541183686
H     -4.182140735016     -0.770026502677     -0.175783727278
