22
OptimizedStructure
C     -2.620126154216      0.240194933529      1.158867510465
C     -2.519168976392     -0.074849524611     -0.298350838390
C     -0.142332084673      0.505140277525     -0.861372856886
C      0.612031607045      0.429510095663     -2.176585842224
C      0.728403483977      0.319372374060      0.361547209911
C      2.680331614151     -0.655265935311      1.452767650696
N     -1.254024469485     -0.462937544765     -0.835125077483
N      1.915165021600     -0.369641180285      0.266745626051
O      0.335625794892      0.766326627482      1.420358863988
O     -3.523979911707      0.014037156267     -0.981216035495
H     -0.845425326873     -1.342140453394     -0.499534586705
H      2.169778494503     -0.887774880861     -0.578299622484
H      3.749745540290     -0.577985671681      1.257705179057
H      2.451705369555     -1.654314345787      1.822535041897
H      2.414062699315      0.065760796464      2.225650221390
H     -0.601466053756      1.502344666772     -0.771870480219
H      1.453366379648      1.122701019185     -2.195181922950
H     -0.045483817513      0.664050170916     -3.014238293139
H      0.995004255861     -0.575969641006     -2.343647614266
H     -3.310086872318     -0.446438017846      1.646519604323
H     -2.994477108028      1.253185597233      1.296966259221
H     -1.648649485875      0.164693480451      1.645760003243
