22
OptimizedStructure
C     -3.163422368104      0.341284359922      0.358544286275
C     -2.217389373293     -0.728108936084     -0.081491388990
C     -0.076548855378      0.568406839260     -0.336492621682
C     -0.030249895766      0.517319445270     -1.850110673758
C      1.317133287316      0.592276898197      0.236904675099
C      3.208316251276     -0.666796913837      1.124595727097
N     -0.826925548951     -0.579161797216      0.205417795751
N      1.835773408752     -0.593996601948      0.693748844392
O      1.941284273658      1.633601171427      0.262700533386
O     -2.664536788541     -1.685784758056     -0.687386482121
H     -0.515752266564     -0.700444081406      1.181439042500
H      1.355561078414     -1.483385645270      0.499590118929
H      3.536716680016      0.329012809230      1.422646291930
H      3.845278282230     -1.008621917555      0.309377733195
H      3.316016263543     -1.339882891462      1.974877682458
H     -0.583582290377      1.489735547070     -0.011627991586
H      0.526632629899      1.361940304108     -2.257360789667
H     -1.033154245581      0.519748415656     -2.277633234029
H      0.462314152065     -0.398270263807     -2.175907976141
H     -4.049169209917     -0.107449308415      0.805551808302
H     -3.482392507215      0.941045093492     -0.492395603580
H     -2.701902957482      0.997532231422      1.095012222238
