22
OptimizedStructure
C     -3.116983543256     -0.287658943462     -0.184380041368
C     -1.679311938174     -0.483297205679      0.163593655074
C      0.150666324527      1.230808991644     -0.141531270414
C     -0.036984877259      1.010972400400     -1.628775974432
C      1.482122978218      0.681231745504      0.309755539264
C      2.707184091192     -1.298156350359      1.042941143234
N     -0.945787013045      0.633689319032      0.661925097612
N      1.472805102990     -0.605585797564      0.782311099794
O      2.489044397261      1.353494460141      0.222262078082
O     -1.179140293649     -1.583830313912      0.012768252852
H     -0.512074704275      0.501911487547      1.586044164408
H      0.621954045600     -1.172714816088      0.619726330938
H      3.044868250781     -1.819020297926      0.147507253432
H      2.587079891059     -2.014815815897      1.855071481700
H      3.466903183840     -0.569440575761      1.325341681813
H      0.151461091989      2.311634821757      0.071256061670
H      0.775674572706      1.462103572295     -2.199118285199
H     -0.980381364077      1.431694590794     -1.976659927469
H     -0.046047263513     -0.056423805076     -1.849303231031
H     -3.742506978437     -0.944483399503      0.417973729973
H     -3.288417401017     -0.524581036554     -1.233160921734
H     -3.422128553462      0.742466968667     -0.005547918196
