22
OptimizedStructure
C     -2.454462979153     -1.764136850705     -0.380304574032
C     -1.509144782386     -0.781312784956      0.212462125318
C      0.152749161499      1.008499125184     -0.139819370163
C     -0.082512917894      2.460458152760     -0.591610292964
C      1.494476159808      0.493209848413     -0.613730062120
C      1.764668994369     -0.873399128023      1.461557658498
N     -0.900264434878      0.128038616386     -0.625598018485
N      2.228132028137     -0.355648866486      0.186174472301
O      1.885533078010      0.830743923152     -1.713096257544
O     -1.277804964743     -0.803379232393      1.405351284451
H     -0.927193219731      0.019589110791     -1.640289849500
H      3.112594695091     -0.721943517505     -0.167320326951
H      0.754146442899     -1.265065742634      1.356760328498
H      1.757420861872     -0.081080713702      2.208309886379
H      2.406175082461     -1.677645944157      1.820799604990
H      0.119732837500      0.953425635073      0.958971506719
H      0.776574572573      2.829290818106     -1.154776117588
H     -0.252985903667      3.139405690051      0.245840547168
H     -0.950709103959      2.520199042406     -1.248427491612
H     -2.006974051710     -2.756802607936     -0.399379869434
H     -2.726059287545     -1.487592172728     -1.398205479435
H     -3.364092268553     -1.814852401099      0.216330295506
