22
OptimizedStructure
C     -2.259361698198     -1.456585763121     -0.276460705136
C     -1.160562062076     -0.462732453759     -0.414223917665
C      0.396283339468      1.106443759517      0.710371172820
C     -0.362415855863      2.360745867632      0.326454433923
C      1.563390498754      0.913684677880     -0.246831268840
C      1.800283358515     -1.565015639838     -0.040986482660
N     -0.512457546707     -0.044618373815      0.729881257856
N      1.792402872316     -0.354400589324     -0.847811202939
O      2.253150424416      1.889931393259     -0.480951955558
O     -0.866892842992     -0.043928484305     -1.516426925782
H     -0.898075287071     -0.277563244820      1.647226649682
H      1.288584734130     -0.542167171377     -1.732192304800
H      0.789261921823     -1.899462528412      0.185068631396
H      2.315605116268     -1.369373796075      0.897879616899
H      2.329948391925     -2.365337669376     -0.556938498618
H      0.826135009496      1.225101677561      1.717377170428
H      0.301100718918      3.226130233488      0.299337089291
H     -1.181857592105      2.562344938327      1.016311501351
H     -0.782811363003      2.234175355048     -0.671846347512
H     -2.299928872157     -1.868252990948      0.731070097935
H     -2.112962926115     -2.277072016858     -0.977356949590
H     -3.218820339741     -0.992047180686     -0.498951062482
