22
OptimizedStructure
C     -2.843814313700     -1.254449195828      0.575484832759
C     -1.819410746759     -0.197882147189      0.784449509577
C      0.055567359655      1.136274401523     -0.108473688516
C     -0.123167537101      2.279316093486     -1.087846213736
C      1.414343995219      0.491965409786     -0.244761692384
C      2.816161914819     -1.449889169159      0.242585532396
N     -0.991308496122      0.133354665755     -0.262902045543
N      1.531458958834     -0.799119761557      0.203142946393
O      2.349183902521      1.108196804603     -0.714372979084
O     -1.723314627892      0.351418513006      1.863794336272
H     -1.020738894349     -0.356181058704     -1.158621268420
H      0.744488671776     -1.249105951733      0.687767938170
H      2.738523993128     -2.488311830383     -0.078341965796
H      3.229374037388     -1.412564420093      1.250036931125
H      3.497265767707     -0.926105684684     -0.428159650871
H     -0.031230885370      1.513832017502      0.923671092212
H      0.656923082039      3.030107401406     -0.956683925783
H     -1.095611391903      2.756906806139     -0.966291370905
H     -0.053443315552      1.909779454628     -2.110167468235
H     -2.661294005885     -2.093955950487      1.244727486615
H     -2.833332727742     -1.621469815997     -0.449899758171
H     -3.836624740711     -0.862116582020      0.790861421922
