22
OptimizedStructure
C     -3.221042503254     -0.991129183312      0.470681804734
C     -2.181381897213      0.045118041517      0.706343347836
C      0.085535768894      0.885604116005      0.325834667923
C     -0.134244503141      1.944217609921     -0.734857697635
C      1.512704938298      0.384617342793      0.309458385985
C      3.191039620471     -1.261778700828     -0.345262837167
N     -0.907538885590     -0.176702817154      0.230426254620
N      1.819668878779     -0.829166960627     -0.257582430633
O      2.374671896110      1.094710978764      0.788104764578
O     -2.464412913052      1.070043995956      1.294486710681
H     -0.730943688951     -0.901526146958     -0.466148182781
H      1.127503419004     -1.377041012046     -0.774462340085
H      3.580005354884     -1.098955914047     -1.349883612284
H      3.285743854551     -2.316219265706     -0.086843209884
H      3.789248164096     -0.677061171304      0.353883169737
H     -0.075366688990      1.336914982957      1.319452814131
H      0.574901206361      2.765290951182     -0.622858549536
H     -1.145930270205      2.347409276483     -0.674912866216
H     -0.000223286829      1.518422265436     -1.728499368427
H     -3.760315310411     -1.194924845174      1.394668167045
H     -2.779337911004     -1.922329300259      0.118387809821
H     -3.940285242807     -0.645514243598     -0.270416802446
