22
OptimizedStructure
C     -1.862731778906     -1.410154978016      0.841104360083
C     -2.378653765337     -0.028969021775      0.594496518787
C     -0.244944304650      1.114334780833     -0.079949836702
C      0.195449988155      2.313117045028     -0.896894657673
C      0.591734962760     -0.094949163161     -0.408867793172
C      2.573822554456     -1.451444080761      0.041899698330
N     -1.669642009279      0.821870910531     -0.305598782704
N      1.687073769973     -0.366598249471      0.375621698352
O      0.284102879075     -0.787037676520     -1.356456989738
O     -3.387107512798      0.326054272323      1.178769585038
H     -1.740235758416      0.607946232205     -1.306901912960
H      1.985877417553      0.273936007512      1.116522452075
H      2.093422471670     -2.085062028203     -0.703672617586
H      2.797525923165     -2.055944990800      0.920532114753
H      3.503391124718     -1.070159000128     -0.379656024334
H     -0.137609774092      1.333469184404      0.993046263835
H      1.235676828067      2.572157824113     -0.697887979713
H     -0.425522010688      3.183125259817     -0.682512076645
H      0.106470668784      2.093883390370     -1.960543895068
H     -1.258203114571     -1.436719236026      1.746247900804
H     -1.254517915477     -1.752365254464      0.004040688912
H     -2.695380644161     -2.100491227810      0.966661285327
