22
OptimizedStructure
C     -2.792370853342      0.379375464014      0.866958370664
C     -2.014958979999     -0.599355126230      0.057227263876
C      0.344607805844     -0.151483723349      1.004782197112
C      0.015087486911      1.316089142857      1.198756973766
C      1.558970399262     -0.259939962121      0.113714413896
C      2.444637953058     -0.522451859270     -2.149460627457
N     -0.733819895069     -0.998995649093      0.431722251680
N      1.343311572301     -0.494270954090     -1.221454195276
O      2.669065265470     -0.112640804698      0.582758945934
O     -2.530423220062     -1.068028740413     -0.941541169568
H     -0.324123523963     -1.762693184801     -0.110065804789
H      0.388756318829     -0.509113399907     -1.606174888030
H      2.488792425785      0.406572490783     -2.716994026668
H      2.351630104278     -1.362692228067     -2.837248325101
H      3.374004272837     -0.630045205768     -1.589711293592
H      0.610982303208     -0.597520680027      1.975766492837
H      0.903946883507      1.868071798009      1.507707500293
H     -0.747363531673      1.472981899979      1.960035924022
H     -0.328791844167      1.754505039169      0.262621862597
H     -2.638030608489      1.396500254395      0.510504123070
H     -2.528421359320      0.316565357891      1.921529260931
H     -3.855488975204      0.158570070735      0.778564749803
