22
OptimizedStructure
C     -1.420165257482     -1.158319770234     -0.875631888908
C     -1.932019932707     -0.244321558867      0.184087540403
C      0.044687996556      1.346510948993      0.002986328955
C     -0.159339607707      1.894682117044     -1.397152469083
C      1.087394570990      0.254782297760      0.047448949983
C      2.059079806671     -1.587926482372      1.319588145559
N     -1.219304015820      0.866223301359      0.592935725172
N      1.203931537173     -0.432565204569      1.230169137370
O      1.765529850963     -0.000458736154     -0.926924475440
O     -3.014150788579     -0.490459560603      0.683035740010
H     -1.658847432332      1.495871247280      1.262057061884
H      0.495507317156     -0.314660311621      1.961968677253
H      2.833825713730     -1.512841773843      0.556579762240
H      1.488721509133     -2.499243078138      1.142669983060
H      2.536418929200     -1.645050890069      2.297562812713
H      0.420331762215      2.158472386662      0.646933309085
H      0.779936483121      2.259563950457     -1.814125910035
H     -0.884837250027      2.708388959837     -1.403068549880
H     -0.527997854765      1.117159463602     -2.063473422805
H     -1.986489569464     -1.022328843628     -1.795723429175
H     -1.545904264877     -2.192773987786     -0.559380910888
H     -0.366309503146     -1.000704475108     -1.092542117475
