22
OptimizedStructure
C     -2.963615198970     -1.157790541830      0.023020289697
C     -2.051737358699      0.011645625087     -0.114380807844
C      0.171478868424      1.000454838824      0.519969638743
C     -0.252039566005      2.289589685798     -0.155111902740
C      1.293531226875      0.334704834344     -0.247568379007
C      2.974688872443     -1.434739636245     -0.352548087564
N     -0.939990585008      0.055366983739      0.703828650882
N      1.875086185219     -0.778976404124      0.307581770104
O      1.659576245047      0.779093753037     -1.316744031103
O     -2.316184743086      0.866613809679     -0.934749145008
H     -0.700053880604     -0.759819539808      1.269621280731
H      1.619300833600     -1.107397772009      1.243300674245
H      3.038708467361     -1.068192650594     -1.377266935574
H      2.827149920526     -2.514099274318     -0.378142718568
H      3.913327261372     -1.210005340257      0.152881781631
H      0.555506549285      1.241343323833      1.524373120662
H      0.579926435513      2.988515081905     -0.245527720099
H     -1.070423254543      2.769314958521      0.382035469548
H     -0.606475714110      2.061316498469     -1.161405818841
H     -2.722465191252     -1.750538308841      0.904284556075
H     -2.890174409173     -1.797255641538     -0.855439456377
H     -3.995120964215     -0.819144283672      0.107987770409
