22
OptimizedStructure
C     -3.502153397863     -0.613061139574     -0.468798695605
C     -2.387021721542      0.232441154099      0.035425838998
C     -0.012467927469      0.383599339590      0.697354894631
C      0.171757123614      1.801101941328      0.184595459214
C      1.234381424693     -0.470104948940      0.604722200171
C      3.404547891907     -0.976102235673     -0.386014477383
N     -1.111049253128     -0.291127385328      0.018810300397
N      2.280431524643     -0.094200578313     -0.206624815154
O      1.271590116158     -1.499110641493      1.248369982717
O     -2.619036843263      1.348785546513      0.454794356751
H     -0.952085018849     -1.286010829528     -0.148365331430
H      2.191773899316      0.674447129295     -0.876434331658
H      3.280326623097     -1.572931194901     -1.289056003939
H      3.460145367807     -1.652816047003      0.466780478027
H      4.337124822881     -0.415656027834     -0.447994992126
H     -0.293370676598      0.420171653370      1.762573288923
H      1.005365765180      2.302623375227      0.676628410044
H     -0.733240663166      2.386944535677      0.352568064269
H      0.354416357504      1.797714737011     -0.888815587282
H     -3.129049070445     -1.512089405370     -0.957544189683
H     -4.101012257219     -0.054268691330     -1.186477783826
H     -4.151374087258     -0.910350286825      0.353502933942
