22
OptimizedStructure
C     -2.185008584647     -1.264597054798      1.321988467433
C     -1.293506804140     -1.155456269737      0.128837343164
C      0.059252339022      0.950066637389      0.416940207262
C      0.331935954802      2.287941673353     -0.244534472659
C      1.354006671681      0.205552917991      0.669014896156
C      1.379698132140     -0.836799885643     -1.604767437370
N     -0.927192042344      0.143346175860     -0.336433125116
N      1.992623900065     -0.491278972406     -0.336432212174
O      1.831401971098      0.276078043573      1.785766483880
O     -0.901884841069     -2.181724591863     -0.397749408094
H     -1.694547074744      0.785330475656     -0.560368114953
H      2.804600829911     -1.055006835132     -0.082067578447
H      0.750758775554     -0.023040503640     -1.957920544894
H      0.753678282143     -1.720161935868     -1.477887474432
H      2.134379916323     -1.041650184469     -2.363495801566
H     -0.379410655163      1.126226174431      1.412868868873
H      1.034689576182      2.878885266484      0.343934731442
H     -0.582340202355      2.868703774110     -0.367441806914
H      0.769552151931      2.145638090722     -1.231357727295
H     -1.632691720315     -1.679247756940      2.164072273976
H     -3.021297046562     -1.927510122232      1.105887796660
H     -2.578699529516     -0.291295116839      1.611144635068
