22
OptimizedStructure
C     -3.327646287429     -1.036316106537     -0.173036134869
C     -2.237332828110     -0.166905011216      0.342194483257
C      0.090414754826      0.608069079233      0.154520189068
C     -0.246951987721      2.021059663770     -0.273512316010
C      1.365999770623      0.125935600147     -0.500746331490
C      3.152320663928     -1.133504998498      0.643502604863
N     -0.974110892183     -0.312469906518     -0.189881559014
N      2.574191271448      0.146970684986      0.250590735765
O      1.292964955002     -0.262046837399     -1.650661648047
O     -2.470211024481      0.658190751107      1.203258216207
H     -0.797220512418     -0.835500220724     -1.053767274385
H      3.344379911041      0.680633513289     -0.168521416017
H      3.428515679065     -1.711841210007     -0.238254313728
H      2.413045358849     -1.703851561662      1.203603220135
H      4.029002111849     -0.997206619408      1.276687593482
H      0.212375044821      0.561121462996      1.247356632433
H      0.541090519868      2.722598730363      0.001140709137
H     -1.181636343406      2.347479662182      0.184761787021
H     -0.371440343900      2.060023014858     -1.355255265401
H     -2.934776628216     -1.828400414537     -0.809196677634
H     -4.039298804769     -0.448725034137     -0.751193668888
H     -3.863674388684     -1.495314242291      0.656410434114
