22
OptimizedStructure
C     -1.831852814774     -1.056097247893      1.975208225430
C     -2.333629831576     -0.234867688896      0.837610270645
C     -0.035556652490      0.718216132695      0.438843294111
C      0.569159148922      1.948726801848     -0.211091675499
C      0.643194116609     -0.560235506448     -0.020318845268
C      2.286899601462     -0.583447904235     -1.875551083564
N     -1.479709964726      0.634478222464      0.191277778653
N      0.911882653631     -0.740477491398     -1.404563159986
O      0.904862661939     -1.401988395131      0.819301913518
O     -3.495832811312     -0.337758366558      0.493176005557
H     -1.799533523032      1.091711558827     -0.660097655874
H      0.589462945928     -1.632945952591     -1.793039790204
H      2.663142626811      0.397035622173     -1.590648735593
H      2.345243395244     -0.666607152151     -2.960747728726
H      2.931275738971     -1.336553215664     -1.421927962544
H      0.097307316042      0.784290415713      1.528940898445
H      1.630643712104      2.040449830979      0.019904488496
H      0.067280727988      2.856716618349      0.123680195197
H      0.466110652063      1.893391041195     -1.294216006813
H     -0.972798062441     -1.655854547010      1.675767675165
H     -2.615271047366     -1.732854242071      2.314070780013
H     -1.542280589997     -0.425328534198      2.814421118838
