22
OptimizedStructure
C     -2.272765015376     -1.198570648272      1.150173908238
C     -1.724025072945     -0.769210777712     -0.169934634450
C      0.013059900329      0.944155763417      0.513309385388
C      0.174215469418      2.451632253374      0.547038836784
C      1.276960257993      0.299900416417     -0.014343208894
C      2.318154120588     -1.393080941356     -1.433882662476
N     -1.154810187173      0.535963351201     -0.296459826899
N      1.166269543063     -0.643392949168     -1.007614973113
O      2.349928738399      0.623448698925      0.452941162852
O     -1.747165054125     -1.556627969924     -1.101241711454
H     -1.782489209946      1.339630938966     -0.411148785469
H      0.233149698651     -1.027557124190     -1.246650282163
H      2.266601843854     -1.611683901734     -2.500338372401
H      2.390175328957     -2.326358330932     -0.876179941989
H      3.214093747166     -0.803904288809     -1.238290351086
H     -0.143220595567      0.566761417963      1.534759629960
H      1.056391516156      2.733280086358      1.123359174690
H     -0.696005785723      2.942311386568      0.983477220907
H      0.307440639859      2.835763428285     -0.463796281643
H     -2.432715473812     -0.344208354701      1.806326467106
H     -1.588354581906     -1.890390410685      1.638764289829
H     -3.224889827858     -1.707862043993      1.009730956281
