22
OptimizedStructure
C     -1.608333616510     -1.238309593438     -0.511423462184
C     -2.010336423937     -0.216239061281      0.494310564939
C     -0.017608860834      1.271474510489     -0.028388175815
C     -0.408586859476      1.864612272269     -1.393031846832
C      0.945647933251      0.112218527102     -0.162404195641
C      2.440486543086     -1.468220298225      0.944343241155
N     -1.210631948431      0.880452222331      0.747912234366
N      1.621823538659     -0.283818548141      0.966157561654
O      1.082472464166     -0.450518156679     -1.229719525282
O     -3.051415135728     -0.371963894201      1.104809722516
H     -1.565684295719      1.591102353874      1.385405354491
H      1.374417210692      0.093783017583      1.885116866497
H      1.881235067487     -2.325034202917      1.318834968928
H      3.339306123770     -1.333301270714      1.545595359689
H      2.736635711254     -1.673568241072     -0.084299587831
H      0.510034796224      2.039707575084      0.560985128279
H      0.046119364890      1.294421910903     -2.204825894930
H     -0.093324401483      2.903596448280     -1.504357813024
H     -1.489880293450      1.831686244093     -1.530910699655
H     -1.125819465082     -0.784437539246     -1.375259730207
H     -2.484276344579     -1.785902561393     -0.856437874956
H     -0.912281108251     -1.951741714699     -0.072412196154
