22
OptimizedStructure
C     -2.971488543327      0.686838106390     -0.075135548567
C     -2.267335795786     -0.622089692404      0.006039766296
C      0.097148851075      0.266632760292      0.690875252254
C     -0.322753006675      1.722670157278      0.666361539475
C      1.266760414042      0.055858171086     -0.243274659995
C      3.159015257096     -1.330081539174     -0.911817145732
N     -0.938300809929     -0.751655138441      0.374376365011
N      2.125449302890     -0.982322429203      0.028428827850
O      1.411926059961      0.775366551091     -1.210107651572
O     -2.900337149418     -1.626843229137     -0.265462949404
H     -0.539899859039     -1.684831971313      0.304465283819
H      1.923474782600     -1.658370945410      0.770655731408
H      3.361821624498     -0.467215967265     -1.546501055527
H      2.832745429510     -2.153243174355     -1.546932539114
H      4.078296429350     -1.610718244335     -0.398179985477
H      0.443647311745      0.030714991572      1.710301860784
H      0.514101169453      2.367434993278      0.938006340348
H     -1.136972553700      1.929881273218      1.358975606883
H     -0.617300699312      2.010772937588     -0.341370019559
H     -2.997404872855      1.187044716308      0.891137004569
H     -4.004074555361      0.517247325121     -0.379546883521
H     -2.518518786815      1.336910347814     -0.821295140228
