22
OptimizedStructure
C     -3.033870794826     -0.682060332234      0.567910533983
C     -1.913501625150      0.289673827689      0.468369146781
C      0.218017280062      0.959887974975     -0.580567857794
C      0.315751236460      1.548256008928     -1.974100118502
C      1.486279738217      0.240362102057     -0.188425915071
C      2.547625504838     -1.356897124986      1.326733438864
N     -0.924217131715      0.061886811280     -0.459987400086
N      1.375089559774     -0.715321892547      0.789091479037
O      2.545635979592      0.519916295538     -0.711699614115
O     -1.881959766578      1.258933105679      1.200142757799
H     -0.905355209113     -0.775601753286     -1.044009192241
H      0.481165498121     -0.849196090765      1.278630678588
H      2.374651378122     -2.421565024356      1.481348968164
H      2.832523625669     -0.895713158512      2.271846196623
H      3.370516901505     -1.234516602175      0.622444108419
H      0.052997360571      1.766253010471      0.152883158594
H     -0.592754179891      2.088690372600     -2.240678676881
H      0.463807509679      0.754516823151     -2.705275190098
H      1.165337138734      2.227731629324     -2.051231082446
H     -2.943349376374     -1.471268032757     -0.177196228408
H     -3.985406318667     -0.174072902164      0.417867672390
H     -3.048984309029     -1.139895047909      1.555903136400
