22
OptimizedStructure
C     -2.716711386254     -0.648490574328     -0.297653710780
C     -1.704978154629     -0.010855473221      0.598447331436
C      0.177093164471      0.983465754455     -0.820175627349
C     -0.103903004208      0.085138699930     -2.005196422892
C      1.443645688324      0.536480069062     -0.125471090965
C      2.487868195949     -0.589984571819      1.775854425549
N     -0.946732008193      1.095016640797      0.153993559163
N      1.337529767623     -0.021719825420      1.124100105372
O      2.509926640977      0.663396414019     -0.692128208518
O     -1.580739986490     -0.431463830733      1.736452202425
H     -0.587848651971      1.680146565593      0.907468606041
H      0.401359806595     -0.243662632179      1.511008786146
H      2.522124298995     -1.666756625456      1.613015231082
H      2.467598452303     -0.386336243030      2.846310746122
H      3.388432094712     -0.146837002147      1.350520843168
H      0.362064028540      2.003393256413     -1.195238167670
H      0.731017188353      0.100439868652     -2.707255613044
H     -1.002492002691      0.394623332440     -2.538927179188
H     -0.225432847709     -0.946847610941     -1.678664370246
H     -2.316081257020     -0.878747250188     -1.280958998078
H     -3.576693829003      0.007806638446     -0.424316349789
H     -3.067046198675     -1.578205600345      0.148813902015
