14
OptimizedStructure
C      1.652179762610     -1.458838083155     -0.114150325446
H      2.286385114808     -2.323655985486     -0.209886287484
H      2.157933660209     -0.529725307855      0.085211933561
O     -2.300296091165      1.831247341001      0.124887358032
C     -1.120216603870      1.996227000236      0.248924882853
H     -0.703579907948      3.004260617998      0.454484407569
C     -0.067619463738      0.932345117591      0.153299259945
H      0.630388310120      1.227100590869     -0.635190985443
H      0.489801399501      0.932570259376      1.094093830949
C      0.341445620131     -1.553549782657     -0.236840740731
H     -0.104168041296     -2.520064137832     -0.437683961996
C     -0.657246475990     -0.444710658310     -0.129175087395
H     -1.232590411703     -0.400134191755     -1.058955863190
H     -1.372416871668     -0.693072780022      0.660981578775
