14
OptimizedStructure
C      0.350905095379     -1.192001683776     -1.816137343773
H      0.612355376069     -1.932936637557     -2.552027026104
H     -0.058028098648     -0.273799644364     -2.200678100671
O     -1.560668069360      2.408234860201      1.581378529143
C     -0.573009768098      1.773100696940      1.343990644922
H      0.313389354505      1.827352501337      2.009794256905
C     -0.381523895124      0.860955466849      0.170346381755
H     -1.333413360980      0.723519082090     -0.344011805170
H      0.317674845484      1.357907946799     -0.508923424993
C      0.525743208542     -1.415771836383     -0.527863096874
H      0.938583944880     -2.362452049453     -0.201393328083
C      0.209470639619     -0.481536708360      0.600491124032
H     -0.490495426980     -0.984486029864      1.275288576584
H      1.129016154711     -0.308085964458      1.169744612327
