14
OptimizedStructure
C      0.916031417138     -1.947935447046     -1.238172636350
H      1.669655715489     -2.716428973850     -1.264514766589
H      0.461858472853     -1.693560784204     -2.181924109744
O     -2.094807949122      1.979913163194      0.505741328367
C     -0.924195485698      2.082900487169      0.736133498752
H     -0.498582036182      3.032383562247      1.122822043810
C      0.105537187033      1.007539287269      0.556072249853
H      0.892062055150      1.397427727908     -0.096365354587
H      0.566154287638      0.824699151748      1.531803080858
C      0.557867536144     -1.354858621934     -0.115412810719
H      1.028975296323     -1.629389388562      0.820360554088
C     -0.480666714280     -0.284344992200     -0.016953484318
H     -0.910234366481     -0.081668719836     -0.998907161887
H     -1.289655416005     -0.616676451902      0.639317568467
