14
OptimizedStructure
C     -0.183301000758     -1.851675587294     -1.631816316421
H      0.038359046673     -2.187846268158     -2.630086852639
H     -0.992932885223     -2.354204951920     -1.128313856872
O     -1.193394397950      2.372541775258      2.052497850048
C     -0.294329779141      1.672830505050      1.682877211261
H      0.523095043805      1.379912777698      2.373932406167
C     -0.133105035750      1.114865611785      0.300972896144
H     -1.048581632247      1.275052965313     -0.270748437876
H      0.675161539424      1.674846243602     -0.180037482973
C      0.499693087768     -0.883931066798     -1.051268103292
H      1.307328587061     -0.391937611477     -1.578274886499
C      0.237339094921     -0.373733308499      0.330537150477
H     -0.572264924215     -0.943527584909      0.789654969305
H      1.136933255633     -0.503193499651      0.940073453170
