14
OptimizedStructure
C     -0.697285239689     -0.171475225622     -0.764279786749
H     -0.412421246909      0.446510296260     -1.632214324106
H     -1.679192188248     -0.611162919143     -0.955437595943
O     -0.856330874355      0.644942796147      0.376773786043
C      0.128577896656      1.549896178353      0.610301155971
H      0.817766826075      1.722493904076     -0.212558278084
C      0.230012715166      2.209852091721      1.752071081161
H     -0.455661588802      2.032079792854      2.559903031808
H      0.994445842700      2.949244294399      1.893941645253
C      0.333556619364     -1.245314889633     -0.561611967737
H      1.256442530450     -0.906798512484     -0.108359101586
C      0.162182838915     -2.511051717860     -0.889038350970
H     -0.754642180676     -2.862142255290     -1.333317195232
H      0.932548049352     -3.247073833778     -0.736174099829
