14
OptimizedStructure
C     -0.136551696413      0.429311206041     -1.643089180207
H     -0.222065561777      0.963154490766     -2.569802733750
H     -2.663126924918     -0.911756302407     -1.436701573257
O      0.670759212160      1.061913615760     -0.684437324100
C      0.700371170794      0.346260776678      0.376310373386
H     -3.473521210490     -0.893099062631     -1.393330468287
C      1.446785065887      0.772557064188      1.579531731776
H      2.116415337920     -0.019999562743      1.912304019810
H      2.023337088254      1.670508906985      1.368982899072
C     -0.669678425296     -0.751759932443     -1.234734211238
H     -0.910787961536     -0.984513587181      0.916431016674
C     -0.123277009270     -0.880557323565      0.169524323030
H      0.487391293771     -1.782954723664      0.242904177389
H      0.753949620913      0.980934434215      2.396106949702
