14
OptimizedStructure
C      0.375466251528      0.306381465809     -1.846775631632
H      0.614792084225      0.472749523743     -2.879390972852
H     -1.859759299393      1.911754095530      0.574617988085
O      0.181890142703      1.443794345437     -1.069672879302
C     -0.099625796810      1.161189276553      0.163469446615
H     -2.645804409203      2.107779878135      0.584021947514
C      0.856622084669     -0.856531954342      1.351711662192
H      1.873646442855     -0.555608081372      1.110255491593
H      0.587296019987     -0.429898453739      2.313476791259
C      0.221320878690     -0.791739769133     -1.117717270457
H      0.312605259762     -1.810519399713     -1.433276509153
C     -0.111458881452     -0.351814117062      0.279038148238
H     -1.124582862826     -0.666107591025      0.554398989758
H      0.817592085265     -1.941429218822      1.415842798143
