14
OptimizedStructure
C     -0.804317042988     -0.476576236203      0.242261456626
H     -1.420626369044      0.319711453904     -0.201919686964
H     -1.461634100628     -1.302196823593      0.528482654500
O     -0.229372756894     -0.019898588085      1.452164117442
C      0.333891707375      1.209694863291      1.478551688645
H      0.719298783570      1.398264511924      2.472496221953
C      0.435570153495      2.112021722807      0.515008076400
H      0.072466290352      1.962791138574     -0.485960370501
H      0.902291835919      3.057242636132      0.717848786046
C      0.220519194609     -0.945261381358     -0.750068213980
H      1.110562808290     -0.334445445277     -0.811408685914
C      0.082195626157     -2.020362855675     -1.501455608139
H     -0.795591406987     -2.643132236864     -1.444936193234
H      0.834745276772     -2.317852759578     -2.211064242880
