14
OptimizedStructure
C      1.231032063581     -1.140492294209     -1.375015953940
H      2.214316715890     -1.567017700312     -1.478306264458
H      0.800535029629     -0.708591744965     -2.262654489949
O      0.221524868838      2.032423117219     -0.657926316387
C     -0.087651049472      1.826541890191      0.479732571130
H      0.077756741459      2.594942236396      1.264353550712
C     -0.739183734851      0.581383150780      1.009421064760
H     -0.210824448073      0.273152810327      1.915260695539
H     -1.753605016377      0.862201708574      1.310185038401
C      0.587926786090     -1.135865897571     -0.223995376905
H      1.043085379370     -1.565856774457      0.660348855326
C     -0.775650613284     -0.552919093747     -0.017988152864
H     -1.157331641746     -0.165729934745     -0.963402202096
H     -1.451931081052     -1.334171473480      0.339986980730
