14
OptimizedStructure
C      0.093435883636      0.104343682118     -1.550250276438
H      1.223821268448      1.016916455696      0.921755113608
H      0.292565527441      0.248895917709     -2.602724032095
O     -0.632795875983      1.088243349927     -1.048682845021
C     -0.709042440800      1.433235775173      0.207849759800
H     -1.445751551739      2.196968773723      0.392879184330
C      0.185954239638      0.943294896946      1.263073263199
H      0.052182591011     -0.137274818254      1.476748652177
H      0.050976963445      1.518697817403      2.172803504716
C      0.500907522901     -1.092462558000     -0.922306424872
H      1.346784884460     -1.587063628467     -1.385048698336
C     -0.117655641003     -1.702053040490      0.115561444694
H     -1.088191163870     -1.391559052310      0.463031613646
H      0.246807792414     -2.640183571175      0.495309740592
