14
OptimizedStructure
C     -0.640365399450      0.309170670304     -1.400506610163
H      0.073148649668     -1.636224809165     -1.895976073451
H     -2.537094723856      0.777250930315     -1.262779164960
O      0.009706633611      1.004496808443     -0.520953471449
C      0.660351483029      0.209970919428      0.431688949898
H     -3.292083664304      0.911210996846     -1.002946865492
C      1.425884379786      0.919471257193      1.484761366093
H      2.203285286668      1.533713997973      1.031431837479
H      0.764645324252      1.578631970934      2.046332921447
C     -0.420305086267     -1.144504681607     -1.053767330123
H     -1.366578486310     -1.664470923815     -0.899543187396
C      0.438867082155     -1.076809129991      0.167605736742
H      0.798343911700     -1.925834643479      0.711813336220
H      1.882194609317      0.203926636620      2.162838555155
