14
OptimizedStructure
C     -0.032950631741      0.019789761716     -1.777299100778
H     -0.562156307344      0.199823239804     -2.693455734127
H     -2.649805626708      1.856774625974      0.012243286704
O      1.161344999867      0.715314837615     -1.606915510768
C      1.734600541153      0.454401292059     -0.478087021951
H     -2.203493909151      1.318761161004     -0.331197715304
C      0.472776551897     -0.167159203056      1.652489907668
H      1.368599672664      0.016182252509      2.238327042887
H     -0.123561889265      0.742308551067      1.634165569423
C     -0.276382868589     -0.752890794920     -0.725196877595
H     -1.114490909351     -1.398342647691     -0.559155752573
C      0.865908507884     -0.564860367122      0.230694744318
H      1.467840954080     -1.482099408199      0.281904033854
H     -0.108229085397     -0.958003300763      2.121483128240
