14
OptimizedStructure
C      0.515270168418     -1.388965888621     -1.737187236280
H      1.299468480189     -1.494229499054     -2.467098453014
H     -0.448515043898     -1.785444984795     -2.013368388410
O      0.083359135331      2.462185632650      2.033795551402
C      0.202129084659      1.748563067971      1.078205642396
H      1.138744758478      1.740148928377      0.487824078173
C     -0.850228279143      0.812451572677      0.563554504809
H     -1.722105567851      0.862920078151      1.218307818796
H     -1.137217997149      1.147761172332     -0.436766876826
C      0.718816348964     -0.813921309158     -0.566926204712
H      1.698487760060     -0.431408749062     -0.314414732804
C     -0.344265905229     -0.640484232342      0.473186566269
H     -1.195465587582     -1.279404106780      0.230402677366
H      0.041522644754     -0.940171682347      1.450485052836
