14
OptimizedStructure
C     -0.142965496517     -0.597152290452     -1.423564082453
H     -1.071066228768     -1.095676442098     -1.735557056305
H     -1.926101567049      2.327353809180     -0.395616683496
O     -0.435332447145      0.348049069182     -0.411729057623
C      0.275610404969      0.033062776161      0.719540817869
H     -2.398558059411      2.947272460727     -0.403837612686
C      0.207660498009      0.743562821345      1.843514895559
H      0.274050182867     -0.078011706591     -2.297536590008
H     -0.418185922639      1.612614139130      1.919259145250
C      0.833552881347     -1.545240129045     -0.803087133306
H      1.241283024607     -2.380343373665     -1.339424539773
C      1.065584897377     -1.160401768773      0.449176557438
H      1.711466436174     -1.612637671629      1.176180535901
H      0.783001396180      0.457548306530      2.702680803635
