14
OptimizedStructure
C     -0.116601077620      0.037188784913     -1.908515521153
H      0.541812058929     -0.167053032151     -2.763970193054
H     -1.175018018499     -1.952910741744     -1.754841029835
O      0.609303437148      0.736606853157     -0.914973462421
C      0.592735110939      0.010019129671      0.248318090215
H     -0.947467344169      0.663602127156     -2.261181049114
C      1.185784868644      0.417218964509      1.369934603115
H      1.152054461351     -0.189269628496      2.254864062989
H      1.721147604429      1.347160316817      1.412532248658
C     -0.590252602124     -1.214699648419     -1.240686138883
H     -1.544627018631      1.921102575018      2.545816749119
C     -0.165655244335     -1.212449028217      0.020230518391
H     -0.325786389201     -1.953660671015      0.778693938988
H     -0.937429846862      1.557143998802      2.213777182987
