14
OptimizedStructure
C     -0.234361190946     -0.860376475110     -1.558360581392
H     -0.761503608765     -0.805203722707     -2.489951462082
H     -1.905605051705      2.224775893521     -0.690510532681
O     -0.436042985192      0.137488279261     -0.678080571054
C      0.315247402692     -0.127958457602      0.413222449376
H     -2.333726987648      2.871736229847     -0.626553634004
C      0.276154986175      0.829011606419      1.550726578883
H      0.603648084747      1.817092474213      1.228907063374
H     -0.738953373986      0.922526197807      1.935355378913
C      0.637562535818     -1.771048517380     -1.054881601698
H      0.983554287648     -2.665760106068     -1.530399087928
C      0.996652913208     -1.293964124941      0.231430685569
H      1.669695243056     -1.757238983416      0.923562216583
H      0.927677744898      0.478919706155      2.345533098142
