14
OptimizedStructure
C     -0.413339722201      0.065422296431     -1.653482732391
H      0.476406491131      0.297964441201     -2.258598654239
H     -1.293634562117      0.120799479499     -2.307584316707
O     -0.556137457386      1.009689628753     -0.606677336725
C     -0.378817443587      0.371126152477      0.655459955335
H     -1.257890594736      0.598774225377      1.277730208394
C      0.878908408706      0.883755461238      1.364829798846
H      1.760499289893      0.648234335746      0.773323296501
H      0.815469614545      1.961597780397      1.484282982282
C     -0.289613228480     -1.264076549878     -0.976188381386
H     -0.217520932008     -2.180842704774     -1.530590501470
C     -0.287014898034     -1.093136162504      0.333070334926
H     -0.207230980286     -1.838670152781      1.101253233336
H      0.969916014559      0.419361768817      2.343172113299
