14
OptimizedStructure
C      0.538587225380     -0.281902810383     -1.813253243103
H      1.473677713070     -0.460730171877     -2.361571273935
H     -1.877491054050      1.625286486750      1.427562376212
O      0.757151385836      0.706345609290     -0.823887088891
C      0.462084079460      0.181068909968      0.408376220768
H     -2.612138865450      1.889443999084      1.471248360985
C      0.561356436734      0.877754591014      1.539888029842
H      0.891264471303      1.899703230569      1.539198451131
H     -0.211616228112      0.079848045398     -2.529798811796
C      0.075185798581     -1.491272992817     -1.064755331969
H     -0.170353540436     -2.411858857865     -1.558206595974
C      0.036685866213     -1.200930323270      0.233096559881
H     -0.250466999222     -1.834431690569      1.049504985682
H      0.326073710693      0.421675974706      2.482597361168
