14
OptimizedStructure
C      0.997029133837     -1.403544190805     -1.777955031980
H      0.824434478525     -2.172422334359     -2.511252699422
H      1.850834604379     -0.767640562356     -1.945875342075
O     -0.927647537743      2.892317538062      1.428235260613
C     -0.697292991167      1.719658665081      1.507853976508
H     -0.366350736963      1.265986440646      2.465037236180
C     -0.817907132135      0.727972115641      0.390272854227
H     -1.712397784690      0.128447162410      0.586997025489
H     -0.958585714470      1.253374341072     -0.555657762707
C      0.213804770673     -1.249312417728     -0.727803167904
H     -0.639924136131     -1.898855321590     -0.581823882707
C      0.402062530577     -0.199945241410      0.321913259832
H      0.535449326334     -0.682505953346      1.295004872580
H      1.296491188973      0.386469758682      0.105053401365
