14
OptimizedStructure
C      1.094999626984     -0.344942435837     -2.230841509106
H      1.666174108044      0.014883634022     -3.063267709460
H     -1.212252416313      2.049202080536      3.492888481990
O      0.844818328153      0.525372116244     -1.235428979380
C      0.120551047320     -0.128816311435     -0.301341306260
H     -1.422096135763      2.449337641951      4.125372678767
C     -0.295458772642      0.610974131839      0.919758908185
H      0.578750909293      0.975992154886      1.458552950167
H     -0.908851947056      1.471054470391      0.651821651275
C      0.543857504843     -1.555345462289     -1.957323751959
H      0.581363432309     -2.435121706474     -2.566371811332
C     -0.092496669597     -1.415176955613     -0.697877994659
H     -0.633208295340     -2.169543000590     -0.163740168830
H     -0.866150720235     -0.047870357632      1.567798560601
