14
OptimizedStructure
C      0.261964509771     -0.167533486847     -1.975305346311
H      0.100092225303     -0.241619641558     -3.033403791186
H     -0.630730087113      2.195097072813      0.507245193043
O      0.561174529819      1.097430479312     -1.487741729367
C      0.724038775588      1.109363809792     -0.197917554941
H     -1.355173533147      2.529007278675      0.699323876072
C     -0.357171573889     -0.566358637164      1.452606415661
H     -0.062608111415      0.061193695988      2.288700453087
H     -1.378404077625     -0.316666711951      1.174852354079
C      0.242905551862     -1.059273315574     -0.991921278694
H      0.035106788584     -2.107362678270     -1.055613134443
C      0.580139982558     -0.325586088480      0.273763713174
H      1.599682798013     -0.597952065725      0.586746673521
H     -0.321017778309     -1.609739711011      1.758664156305
