14
OptimizedStructure
C     -0.710860727549     -0.053265860427     -0.651599573845
H     -1.225722974263     -0.253881641239     -1.595160881346
H     -1.462235053587     -0.010201032023      0.151389121647
O     -0.110956050455      1.217965601684     -0.816116947428
C      0.280454323911      1.897485092071      0.286114818561
H      0.712774734621      2.842075337811     -0.018634319335
C      0.183448068251      1.561605002089      1.563112774196
H     -0.232730400988      0.632117211093      1.907933009994
H      0.531837018304      2.238814319025      2.319703418511
C      0.287856213501     -1.136335062248     -0.361431213878
H      1.079236274049     -0.857914724735      0.320650322682
C      0.238802740897     -2.345111865455     -0.886800807247
H     -0.539223059969     -2.633890947115     -1.574426107534
H      0.967318893277     -3.099461430532     -0.644733614978
