14
OptimizedStructure
C      0.910290332097     -1.199053162936     -1.531479023987
H      1.882838481657     -1.490354844667     -1.888723132578
H      0.150414758351     -1.057676950366     -2.283084664527
O      0.700974526292      2.650328632741      0.572216305234
C     -0.100697778016      1.817543581738      0.258679015821
H     -0.595329948521      1.844685098632     -0.733258803949
C     -0.550562101195      0.672808238675      1.118279801329
H      0.141168004205      0.552813928432      1.953875574974
H     -1.531616603962      0.941473340684      1.521752245268
C      0.657871709884     -1.030666216342     -0.247914616959
H      1.438746996793     -1.177594711523      0.486728661253
C     -0.670990166570     -0.623313317962      0.308743996520
H     -1.388976635208     -0.488213613409     -0.502712377455
H     -1.044131575805     -1.412780003699      0.966897019057
