14
OptimizedStructure
C      0.059244370334     -0.164515603632     -0.318452214590
H      0.558904088247      0.489294262637     -1.052056782722
H     -1.021200391058      0.026894380672     -0.364763340935
O      0.554341805076      0.119607338989      0.977427738677
C      0.404500320981      1.379869316411      1.440539773865
H      0.823238387288      1.447404819899      2.436171684102
C     -0.149619474896      2.423744838542      0.843939979694
H     -0.574650440510      2.388351201175     -0.142763237485
H     -0.190928879695      3.369405106262      1.350133933013
C      0.361559366497     -1.595251520390     -0.637893179440
H      1.351822949656     -1.916156658101     -0.347753156691
C     -0.483916352097     -2.420534038053     -1.223716695826
H     -1.475923771864     -2.110315383209     -1.508998411145
H     -0.217371977959     -3.437798061201     -1.451816090520
