14
OptimizedStructure
C      0.430076549673     -0.171997735225     -1.927547713062
H      0.588488916219      0.112039205180     -2.948706141611
H     -2.289958737904      0.472224250441      0.586625590085
O      0.858778346528      0.680994637978     -0.978983365013
C      0.561430679122      0.133226041205      0.219581349378
H     -2.961437032610      0.849730358207      0.704192163963
C      0.926853333489      0.880914214890      1.452050499562
H      1.997840605608      1.078470040328      1.472721829241
H      0.408051870907      1.838659712694      1.484280067194
C     -0.141621286126     -1.266782260005     -1.363369727391
H     -0.570020309640     -2.106689623923     -1.870656127217
C     -0.056441863613     -1.068672909047      0.038444066184
H     -0.405893613688     -1.732014099756      0.803562938005
H      0.653852542036      0.299898167036      2.327804570683
