14
OptimizedStructure
C     -0.058243367707     -0.004969958100     -1.574951548815
H     -0.247712753061      0.371194367029     -2.560832489607
H     -2.756435497546      0.346230034237     -0.982675812343
O      0.584376948545      0.810729883802     -0.718988198558
C      0.718407485910      0.144341914127      0.448573399093
H     -3.449951107574      0.665637117564     -0.826373504571
C      1.399671792365      0.827061193037      1.580173931728
H      2.415669316897      1.104186185609      1.301322536896
H      0.866504674679      1.737576737020      1.851443137202
C     -0.342286052056     -1.193233277846     -0.981019999908
H     -0.846429806156     -2.030694878823     -1.418585781772
C      0.163755241258     -1.095901878358      0.340124346507
H      0.118667439834     -1.847077370491      1.101888926542
H      1.434005684612      0.164919931192      2.439901057606
