14
OptimizedStructure
C     -0.134111911553      0.109083142428     -1.566528461187
H     -0.436328894388      0.521120232897     -2.508998539464
H     -2.818986490017     -0.086235485945     -0.854005040396
O      0.393520248454      0.958090244368     -0.665533592940
C      0.702206596606      0.237139154855      0.434548118806
H     -3.549910298973      0.087796598469     -0.646934857431
C      1.305234549816      0.941076199417      1.597121282081
H      1.500004084749      0.230434468732      2.394488498546
H      2.240149530264      1.420223001347      1.308746738471
C     -0.171093666539     -1.154262127367     -1.068536927300
H     -0.538101588596     -2.032410117225     -1.559584764470
C      0.373949499175     -1.070993229888      0.237972885882
H      0.501779824755     -1.875639155865      0.932801788775
H      0.631688516246      1.714577073775      1.964442870626
