14
OptimizedStructure
C      1.476757650516     -0.800967779755     -0.764527365833
H      2.218912944414     -1.348700610002     -1.319664207607
H      1.726697112990      0.221137358630     -0.533922647799
O     -0.891004888768      1.643157294542     -1.280593456698
C     -0.396737354148      1.726293737301     -0.193046037532
H      0.138267161155      2.647693769920      0.120113406266
C     -0.458116840289      0.679487395820      0.883306308355
H      0.477170996535      0.672020518893      1.445285851547
H     -1.246077442210      1.002472065038      1.571875489950
C      0.333079259578     -1.356795638582     -0.413811721920
H      0.133948231400     -2.384961189562     -0.689486401692
C     -0.787269272647     -0.708488898845      0.340950641313
H     -1.646457732026     -0.627258477543     -0.331908853232
H     -1.079169826501     -1.365089545856      1.165428994882
