14
OptimizedStructure
C     -0.396168792853      0.228747922864     -1.269776452992
H     -0.938057682108      0.483953200025     -2.159865854131
H     -1.035198382285      3.526276421447     -1.485788285033
O     -0.070546331785      1.285149247456     -0.422873909600
C      0.571843244151      0.902105892817      0.631433139889
H     -1.427694110601      3.823928180998     -2.088283447412
C      0.266914398096     -1.378919968740      1.735012562609
H      0.779717396330     -1.020248143954      2.622563010764
H     -0.802700014524     -1.235110354265      1.869712710102
C      0.051897728035     -0.918387277283     -0.774537875627
H     -0.048434985211     -1.900017747450     -1.189453472393
C      0.751158875614     -0.597514730527      0.514770238918
H      1.832196639242     -0.759040689591      0.407554545711
H      0.465072017899     -2.440921953797      1.609533089197
