14
OptimizedStructure
C      0.664359822320     -0.357901357383     -1.654420049182
H      1.187972625352     -0.649444254171     -2.548855109917
H      0.238241243288      0.630454063845     -1.663118294321
O     -0.351486374781      2.688895812411      0.133762048434
C     -0.023713114434      1.635240483986      0.602909111548
H      0.989084315280      1.492240647795      1.031338331936
C     -0.901841949611      0.423818385778      0.716906370549
H     -1.407522610668      0.506846400403      1.684799203817
H     -1.670402940727      0.453351780403     -0.057376819815
C      0.564869010048     -1.172755619249     -0.621971282986
H      1.017943549073     -2.155618314653     -0.669028115724
C     -0.125264035320     -0.889373314817      0.678704472803
H     -0.810096491424     -1.715435536071      0.892028757743
H      0.627856951604     -0.890319178278      1.474321375116
