14
OptimizedStructure
C     -0.035124527478     -0.204542051672     -0.648735348327
H      0.497777878765      0.328737212719     -1.454544207170
H     -1.110356431358     -0.182518078916     -0.877014705376
O      0.222324101794      0.426123610452      0.590646031898
C     -0.114703096916      1.738228324148      0.673721875222
H     -0.525247697753      2.181117034061     -0.229235077240
C      0.047945688027      2.440791809098      1.782645126680
H      0.454154650968      1.992375700129      2.670522471899
H     -0.222807547649      3.478176449015      1.820271892035
C      0.461458654051     -1.615386460641     -0.579956552034
H      1.412645016809     -1.725496693615     -0.079455689666
C     -0.179925278088     -2.654699431318     -1.077321505753
H     -1.133169109888     -2.552885274367     -1.570109972460
H      0.225027698718     -3.650022149091     -1.021434339706
