14
OptimizedStructure
C     -1.219238533585     -0.140285488353     -0.680731667225
H     -1.304483120970      0.707661702091     -1.379913619061
H     -2.212581265825     -0.592762817907     -0.580672175833
O     -0.884310818974      0.316082624172      0.607018006766
C      0.173883518501      1.165417017634      0.684041398782
H      0.576013016818      1.507791345193     -0.264922171883
C      0.673985564792      1.569024544353      1.840185273458
H      0.270084122641      1.221241980139      2.773283159677
H      1.493398927864      2.260681550629      1.873236936717
C     -0.269362325311     -1.153908476909     -1.257481345603
H     -0.518013896418     -1.454239631322     -2.266761638702
C      0.775187310279     -1.657563471767     -0.629516262911
H      1.024943746440     -1.367005130814      0.377277997656
H      1.420493753747     -2.382135747141     -1.095043891838
