14
OptimizedStructure
C      1.154606841567     -1.861541938001     -1.120833280329
H      1.826034215412     -2.696566389284     -1.017936136555
H      1.074111901127     -1.434293825202     -2.107242856914
O     -1.394535457801      2.715897731315      1.549512735661
C     -0.938079628991      2.096471937253      0.631453473919
H     -1.158672398926      2.382998326111     -0.417259552924
C     -0.039172956560      0.902160191698      0.746338974985
H      0.965527341211      1.224158265856      0.455196466394
H     -0.005684976741      0.567568208291      1.784481917845
C      0.461216895347     -1.391324120038     -0.101869477352
H      0.559311959203     -1.837272367943      0.879235725164
C     -0.484250476376     -0.234411016657     -0.184228857961
H     -0.537230017610      0.130053813505     -1.212077134148
H     -1.483183240861     -0.563898816906      0.115228002216
