14
OptimizedStructure
C      0.211055134463     -0.171789570837     -1.963650633734
H      0.266191241150      0.114389020062     -2.994959670289
H     -2.195446847155      0.541447657344      0.835386727480
O      0.768557274372      0.660066133364     -1.064560608754
C      0.586125061672      0.113487329892      0.157320813993
H     -2.837317788545      0.939508765346      1.027122798611
C      1.108321492424      0.840077884378      1.345145986095
H      2.181051024544      1.002922442840      1.249216540735
H      0.627812923578      1.813759014884      1.437489602746
C     -0.331178758244     -1.251659072987     -1.344334324157
H     -0.839743430568     -2.073642881809     -1.804784056411
C     -0.086917036210     -1.066553313791      0.040460806206
H     -0.372255245380     -1.723824774775      0.836778304966
H      0.913744953900      0.261811366090      2.243367712513
