14
OptimizedStructure
C      0.884053675812      0.034283345197     -0.777520898306
H      1.774854474338     -0.199589207745     -1.373021865280
H      0.160348863351      0.552250123398     -1.420684387023
O      1.359972579775      0.903681370141      0.231768955436
C      0.447728073345      1.517387742371      1.022433019211
H      0.962066011607      2.172459342881      1.713812196284
C     -0.870451302388      1.404545589089      1.015509748108
H     -1.404449715398      0.752337714342      0.349151971280
H     -1.459348515842      1.975021116087      1.708522537238
C      0.301879649868     -1.240948242829     -0.239237418588
H      0.779856534360     -1.606881106299      0.659214148940
C     -0.694445541718     -1.898718834697     -0.800078901743
H     -1.178733084563     -1.540763465370     -1.694445636943
H     -1.063331702546     -2.825065486565     -0.395423468615
