14
OptimizedStructure
C     -0.447358524732     -0.349990389720     -0.376719381677
H     -0.357305710399      0.097454926332     -1.376914089558
H     -1.518640009996     -0.394619134244     -0.115680741644
O      0.243381226520      0.429477656711      0.580117113757
C     -0.190457429491      1.706162741884      0.734914550812
H     -1.040078771212      1.996322313036      0.123524908361
C      0.380586196796      2.549085602337      1.579309901386
H      1.221186497953      2.251653775497      2.178621538045
H      0.015681526487      3.552309553157      1.685321662534
C      0.120294250876     -1.735398492223     -0.364982728184
H      0.334594884552     -2.117296251237      0.622739314000
C      0.349927585766     -2.454254435745     -1.446352455807
H      0.146452806539     -2.076176248945     -2.435011619628
H      0.741735470341     -3.454731616840     -1.388887972396
