14
OptimizedStructure
C      0.196394086284     -0.080656143696     -0.608494182973
H      1.189084575506      0.382829936203     -0.726657838212
H     -0.498496452455      0.448804580300     -1.280070619607
O     -0.237125137500      0.041749957275      0.728075172755
C     -0.353777113326      1.289351796351      1.232517496384
H     -0.692610594736      1.230543692733      2.258748456672
C     -0.115598806856      2.451711512820      0.644776536424
H      0.221384943403      2.548195922751     -0.371322163332
H     -0.258726172296      3.365148508150      1.190116632339
C      0.272506518657     -1.521607333583     -1.012373975991
H      0.601384929946     -1.668012850229     -2.032706950794
C     -0.023692596130     -2.541257673967     -0.230704881281
H     -0.350118587686     -2.388504208018      0.782906524179
H      0.049390407189     -3.558297697088     -0.574810206564
