14
OptimizedStructure
C      0.842410233758     -0.702942931064     -2.269114072304
H      0.805795824288     -0.838421920853     -3.332815487465
H     -2.069830612845      1.978740492793      2.679392609053
O      1.949558580382     -0.020773108671     -1.770930016019
C      1.918151209699      0.111043724338     -0.485570353619
H     -2.662729048774      2.285754627816      3.077573392712
C     -0.232349833385      0.297969632510      0.875634550347
H      0.339318894039      0.650532210123      1.729523904754
H     -0.581985395412      1.158890897637      0.309646671143
C      0.029932473084     -1.057051220532     -1.280890321873
H     -0.899881904355     -1.583255656712     -1.347471054885
C      0.657740830128     -0.578495496240     -0.003964618077
H      0.997728017021     -1.435024413798      0.593431897059
H     -1.093859267628     -0.266966837345      1.225552899175
