14
OptimizedStructure
C      0.178497210516     -1.344145200745     -1.836833736425
H      0.845747871365     -1.465956109045     -2.672750277500
H     -0.838010774815     -1.670211412150     -1.987651433821
O      0.524141402110      2.366236103724      2.081304244406
C      0.462883481925      1.687025907063      1.095689466943
H      1.306362540630      1.646862582485      0.379588976062
C     -0.709333168627      0.837979269228      0.703702123833
H     -1.477194450862      0.913526288926      1.475777697292
H     -1.109298058007      1.231131543547     -0.234859464728
C      0.578903106137     -0.831411754111     -0.688618720226
H      1.606928159368     -0.519247176068     -0.563912122276
C     -0.316639523530     -0.637724810146      0.495673330495
H     -1.233093928602     -1.213734919223      0.354155848955
H      0.180106132392     -1.000330313485      1.398734066992
