14
OptimizedStructure
C      1.804404957398     -1.431042213605     -0.520197757345
H      2.461588053127     -1.575368752562     -1.360620603498
H      2.141394837898     -1.834066704458      0.421643149964
O     -1.955836352595      1.015377085331     -1.198320566455
C     -1.372384313120      1.572698961754     -0.313534457685
H     -1.435272037532      2.674680461947     -0.194176866113
C     -0.525627059907      0.919046345701      0.739432523570
H      0.428694354874      1.449368427240      0.794055839120
H     -1.035273737549      1.080209603844      1.694654690110
C      0.647983102723     -0.806898344592     -0.634315578097
H      0.326038229299     -0.412122638154     -1.588254680414
C     -0.302583812822     -0.577494482657      0.498730172538
H     -1.265715850884     -1.032273118827      0.252930441131
H      0.082589629090     -1.042114630962      1.407973693177
