14
OptimizedStructure
C      0.307604660783     -1.212018151240     -1.971308667526
H      0.943858702530     -1.114885391440     -2.833958141217
H     -0.554630081619     -1.849285560518     -2.084104097912
O      0.492641730282      2.740061192026      0.970432043978
C      0.360834065176      1.584167869691      1.256018804154
H      1.099827737785      1.068432230426      1.904191301547
C     -0.771814138266      0.699865517782      0.826072919349
H     -1.434330788005      0.593380817518      1.690601237454
H     -1.329842926589      1.183530102872      0.022690882618
C      0.567497218175     -0.592669960001     -0.836272437393
H      1.435656722179      0.047890689549     -0.746151229155
C     -0.282209220087     -0.687185063879      0.392993062996
H     -1.139574048566     -1.334812080525      0.203033142805
H      0.304480366222     -1.126472212261      1.205761178303
