14
OptimizedStructure
C      0.321579818588     -0.037850929972     -0.976003884197
H      1.358707140959      0.297450339615     -1.145400762443
H     -0.317426323737      0.488355940374     -1.705066844861
O     -0.082044846076      0.271287137580      0.338253139604
C     -0.045593255833      1.584495519223      0.677024102676
H      0.290945118676      2.267372731593     -0.097944753647
C     -0.397333037619      2.015217319697      1.877371682844
H     -0.729070967457      1.333080295584      2.638216272418
H     -0.359243138819      3.059563896834      2.119525540794
C      0.237852177868     -1.512683706417     -1.228324134858
H      0.538792137378     -1.799109027253     -2.227303542740
C     -0.159514547930     -2.404670649861     -0.342521870152
H     -0.456455204473     -2.108104015654      0.647939415549
H     -0.201195071524     -3.454404851341     -0.575764360988
