14
OptimizedStructure
C     -0.927415537618     -0.423750315094     -0.245094870111
H     -1.387524344829      0.193443743134     -1.034864013171
H     -1.664317672578     -1.151231652543      0.103837784174
O     -0.618423346721      0.378974143111      0.874724165275
C      0.013771477714      1.552578941644      0.616840579771
H      0.014717857307      1.871422272497     -0.422488806695
C      0.566499525441      2.285316810440      1.569235732828
H      0.560992179548      1.961634476859      2.593707549888
H      1.023880641025      3.228838298263      1.341735707437
C      0.281511500242     -1.120026697334     -0.802352362804
H      1.153829966884     -0.489503262757     -0.917463041531
C      0.318645568306     -2.396867500385     -1.129407161885
H     -0.540284053166     -3.036930199333     -1.012036308878
H      1.204116238444     -2.853899058502     -1.536374954298
