14
OptimizedStructure
C     -1.062433234395     -0.591859382099      0.004925348932
H     -1.457452351025     -0.158887486433     -0.924974891821
H     -1.849543763407     -1.192039074822      0.474799216126
O     -0.777772229765      0.425222841056      0.945345410468
C      0.109995053410      1.371594615810      0.539282834156
H      0.454400641037      1.286756435700     -0.486783965951
C      0.524321795111      2.339623280208      1.339269675187
H      0.178593690429      2.409420268201      2.354252254860
H      1.214923409614      3.082810843990      0.990505617590
C      0.129551141814     -1.456938800022     -0.286405764410
H      0.680839264022     -1.770073596714      0.589897935225
C      0.512014979617     -1.810220901772     -1.498335183777
H     -0.027354197308     -1.496649975293     -2.377815014344
H      1.369915800845     -2.438759067811     -1.663963472242
