14
OptimizedStructure
C      0.482133645492     -1.208959420647     -1.735752244847
H      1.316977464547     -1.566991059810     -2.313931017263
H     -0.399185791448     -0.930586848078     -2.288517842868
O     -0.426985113437      1.941285693718     -0.813540659829
C     -0.071697910691      1.860753986571      0.326430370336
H      0.370725601246      2.734766836914      0.849682609360
C     -0.180462170137      0.647452711472      1.204812976947
H      0.776308932600      0.501308671664      1.712695519128
H     -0.919797191977      0.884567879380      1.976517609638
C      0.533799956142     -1.105766752676     -0.422308994113
H      1.433996054744     -1.380750006997      0.114491798517
C     -0.590289123590     -0.609583901754      0.433164802226
H     -1.454231089078     -0.379031752050     -0.191217762865
H     -0.871293264414     -1.388466037708      1.147472835631
