14
OptimizedStructure
C      1.300342778379     -0.770229900966     -1.011139315151
H      1.939159462307     -1.311297357326     -1.688148787587
H      1.561707156952      0.260524694612     -0.844603513420
O      0.304665032963      2.686066786287     -0.252711575100
C     -0.365787037573      1.694603248622     -0.180438164611
H     -1.109416037903      1.450669066904     -0.966103893975
C     -0.335286418037      0.705135122741      0.947240387402
H      0.641932074251      0.731515505810      1.432442551410
H     -1.073551228839      1.054993991228      1.676614869052
C      0.265282967036     -1.349858656687     -0.434496462082
H      0.048353750550     -2.390443553152     -0.643386053773
C     -0.703106388077     -0.711820597755      0.516020343949
H     -1.692063034714     -0.703862697429      0.044747180141
H     -0.782233077294     -1.345995652890      1.403962433744
