14
OptimizedStructure
C     -0.263511302023      0.009886682853     -1.758048125442
H     -0.901056131295      0.202884529283     -2.599536150020
H     -2.560212395927      1.949691331346      0.336522082413
O      0.966002813065      0.663633162894     -1.751857192277
C      1.672121492721      0.389567747859     -0.704366805660
H     -2.181209452568      1.394050044568     -0.056191401014
C      0.678000063225     -0.173547489528      1.578727396748
H      1.648278830701     -0.018473786861      2.041144451543
H      0.115979236997      0.756380565724      1.628258016053
C     -0.394223237051     -0.747105489585     -0.674954959456
H     -1.225247776568     -1.361359376387     -0.394431898109
C      0.868647154807     -0.593790452601      0.122269382213
H      1.440228105956     -1.531478566980      0.104699582082
H      0.136202597961     -0.940338902583      2.127765620926
