14
OptimizedStructure
C      1.021088038875     -1.113271235290     -1.526363296692
H      2.018132877471     -1.375027044263     -1.835742574573
H      0.306738947171     -0.945791671384     -2.316280980093
O      0.623443690673      2.628665740865      0.737922307592
C     -0.144469232206      1.801761376841      0.336606105137
H     -0.577560282193      1.869889129319     -0.681789310426
C     -0.628562299348      0.611849025904      1.112153639602
H      0.012288569875      0.460884200361      1.982572962816
H     -1.636587451215      0.848686119381      1.466035943458
C      0.687705295074     -1.009373394882     -0.254485548500
H      1.424139782739     -1.181327707531      0.519565773516
C     -0.678983583473     -0.645666556188      0.236999873558
H     -1.347754020078     -0.481091388068     -0.610277526971
H     -1.079620333364     -1.470186595064      0.833082631576
