14
OptimizedStructure
C     -0.754195496498      0.292037146252     -1.346468061687
H      0.266293285471     -1.450622272797     -2.025361830363
H     -2.694495008376      0.399140020369     -1.102708766353
O     -0.194102083606      1.025728167469     -0.436699624641
C      0.633591200444      0.292813538317      0.423473480394
H     -3.447313042149      0.375168255183     -0.805796729655
C      1.313356427604      1.048303170166      1.503078742920
H      1.922322717223      0.378263374192      2.103260831581
H      1.946253953302      1.824556727146      1.074097255649
C     -0.263547699269     -1.119894292091     -1.128429070633
H     -1.094075465393     -1.811857898130     -0.983538293361
C      0.630143646307     -0.989544967190      0.062720169286
H      1.160823697896     -1.797994508514      0.522086968684
H      0.574943867044      1.533903539628      2.140284928179
