14
OptimizedStructure
C     -0.133711170594     -0.787820927492     -1.806392077332
H     -0.646167318390     -0.580823687366     -2.726267584601
H     -2.010297377988      2.323848406117     -0.795541649060
O     -0.404013746318      0.134742338817     -0.778154589318
C      0.252179829047     -0.201604868338      0.267086630780
H     -2.350844025890      2.953500151756     -0.491201057647
C      0.172647534121      0.580514344254      1.519822049138
H     -0.496403874575      1.429159879346      1.395060524761
H     -0.191232189413     -0.047280119716      2.333623424702
C      0.726700137319     -1.779862630480     -1.461123839989
H      0.767849458333     -2.255804354593      0.644576776188
C      1.040538669574     -1.435408455593     -0.020977039872
H      2.110775632434     -1.274599365850      0.117240177119
H      1.161978442340      0.941439289139      1.802248255132
