14
OptimizedStructure
C     -0.581684182838     -0.011364191637     -1.277161221873
H      0.046414801334      0.616961088314     -1.929722838299
H     -1.541992792915     -0.164062015150     -1.783094997549
O     -0.890214346913      0.671145269123     -0.086473382607
C      0.160116995345      1.224886537254      0.574776330813
H      1.113961771994      1.196395125951      0.056289879113
C      0.030295407800      1.783084148378      1.766931448942
H     -0.917909075043      1.802791084044      2.272183839244
H      0.870546035330      2.236588822423      2.256044228146
C      0.093533393064     -1.341558493883     -1.084802622111
H      0.366008449996     -1.826362855501     -2.012914491366
C      0.345799189506     -1.902214128574      0.081867326317
H      0.072081560318     -1.427455961027      1.009291485688
H      0.833042793022     -2.858834429714      0.156785015543
