14
OptimizedStructure
C      0.326320924312     -1.429922953644     -1.850181737527
H      1.101914793347     -1.588282324609     -2.579843901233
H     -0.650459459087     -1.809810881144     -2.104426071609
O      1.389061080000      0.975503944251      1.846923167610
C      0.468956710243      1.556105389889      1.346741881827
H      0.380490821144      2.659999497852      1.425207172112
C     -0.669190515710      0.931535380943      0.593394828694
H     -1.571755168602      1.110253227339      1.186353198592
H     -0.795980079899      1.469363656680     -0.349801616686
C      0.556223244286     -0.816282397899     -0.705420434526
H      1.543536082039     -0.444806994061     -0.467271994394
C     -0.482930317682     -0.568403628123      0.342774416122
H     -1.432894006116     -1.010270291345      0.037361320506
H     -0.163294108275     -1.034981626128      1.278189770511
