14
OptimizedStructure
C      0.278329206090     -0.327011557804     -2.049481905018
H     -0.071385791078     -0.204879608545     -3.056443123600
H     -2.822588178391      1.327860756651      1.050647569195
O      1.658694465691     -0.401689636166     -1.879831025912
C      2.002977751478     -0.538708187234     -0.641605229591
H     -3.372888840763      0.821985995904      1.264983905126
C      0.670662066720      0.403875362123      1.321066591452
H      1.520756572950      0.244048591102      1.977700192127
H      0.716084789211      1.420311006887      0.936548728069
C     -0.341045957861     -0.426715388362     -0.879628889536
H     -1.393051558365     -0.396501673249     -0.683758944068
C      0.722481930773     -0.595464478075      0.166626595545
H      0.680965527341     -1.609688132655      0.585724968812
H     -0.249991983796      0.282576949421      1.887450567398
