14
OptimizedStructure
C      0.899732215605      0.034435427335     -0.759318279496
H      1.760524957027     -0.224992410082     -1.387472255575
H      0.280640943494      0.763095856174     -1.299205414761
O      1.474549886537      0.627995443073      0.388849512784
C      0.644910937580      1.225524660353      1.276899205080
H      1.233776906119      1.660980605872      2.073945728216
C     -0.674456547547      1.320166482651      1.250577763969
H     -1.282990668648      0.886103136946      0.478672469314
H     -1.188527212307      1.843093509377      2.034661569510
C      0.116503299667     -1.210645084793     -0.457295013649
H      0.508976966071     -1.798758215499      0.361038822335
C     -0.952554235190     -1.597477222014     -1.126132998439
H     -1.352582927320     -1.016867711076     -1.941870194699
H     -1.468504521088     -2.512654478317     -0.893350914591
