14
OptimizedStructure
C      0.788593472796     -0.052479938611     -0.924371794219
H      1.785876379917     -0.188606320331     -1.357310827949
H      0.138791045884      0.415805464581     -1.677156270553
O      0.989351664325      0.819416834855      0.170785904588
C     -0.137014114666      1.225005271441      0.815329557318
H     -1.075075208539      0.893446964325      0.380895309310
C     -0.095885279280      1.981450355118      1.899220986372
H      0.839800136167      2.299109458121      2.321324537097
H     -0.999657371857      2.299894941444      2.381594220112
C      0.230803874868     -1.382431099799     -0.507043271135
H      0.712630780420     -1.819123334189      0.357261204509
C     -0.773869227127     -1.988292754394     -1.109887148836
H     -1.264711785780     -1.556841927968     -1.967589709265
H     -1.139634367129     -2.946353914595     -0.783052697350
