14
OptimizedStructure
C     -0.353850973318      0.111236727713     -1.239515872537
H      0.457983198510      0.783240362802     -1.555008950969
H     -1.013747412020     -0.046264340126     -2.101399457685
O     -1.162095523626      0.746748224255     -0.274311597070
C     -0.549774306344      1.340580672588      0.777545864631
H     -1.295211667011      1.830219083479      1.391058257920
C      0.737856406185      1.381789904917      1.079476005873
H      1.497703308720      0.889715260774      0.499897463381
H      1.066660370671      1.915337982976      1.950926909832
C      0.222560669832     -1.211650583571     -0.818608837238
H      0.930116549087     -1.621767220075     -1.527086459016
C     -0.090053211191     -1.856569462048      0.288229152918
H     -0.797374432666     -1.455093006120      0.994289274407
H      0.349227023172     -2.807523607564      0.534508245553
