14
OptimizedStructure
C      1.648780951906     -1.456116412778     -0.060030202333
H      2.294662713364     -2.306558876807     -0.195893532865
H      2.106529321925     -0.585192843462      0.376033441561
O     -1.402513341445      2.679867207286      1.259883372267
C     -1.130018952562      1.972639862129      0.332093721761
H     -1.653093550675      2.081684883945     -0.640759439488
C     -0.090487795333      0.893060568370      0.331779268694
H      0.744238910305      1.254405671619     -0.276422309485
H      0.262929245168      0.726612128155      1.350080778616
C      0.377566871340     -1.499624884859     -0.409906969114
H     -0.027022264490     -2.407247985230     -0.840895767648
C     -0.631335210010     -0.399029140598     -0.280244049875
H     -1.037556163445     -0.187588557266     -1.275219460204
H     -1.462680736049     -0.766911620503      0.329501148113
