14
OptimizedStructure
C      1.335090234272     -1.787172645515     -1.090942728256
H      1.879520866548     -2.705963511277     -0.954395851049
H      1.588501304262     -1.208564127073     -1.964236168007
O     -1.794524304871      2.308998839467     -0.110586577776
C     -1.018499871623      2.030461381041      0.757872389131
H     -0.855103130401      2.711427377454      1.619136480660
C     -0.186876996817      0.784393838434      0.827823257098
H      0.861733204126      1.081601381079      0.919444596173
H     -0.449721032413      0.263502309398      1.753692670892
C      0.402518028622     -1.392089216916     -0.245467311243
H      0.165718965503     -1.992347256027      0.624358966508
C     -0.385557172310     -0.129457144478     -0.383110986448
H     -0.093167003001      0.402855423958     -1.289196277340
H     -1.449633091897     -0.367646649546     -0.464392460342
