14
OptimizedStructure
C      0.281459330309     -1.658983697008     -1.618091911799
H     -0.324185750645     -2.463771527702     -1.997471264099
H      1.113246977869     -1.356979308700     -2.233887546956
O     -2.235977962298      1.365182324479      1.352429854102
C     -1.088515787997      1.025579687924      1.407371417350
H     -0.695071904773      0.484649142126      2.293269278910
C     -0.048997355704      1.280013976612      0.356466506191
H     -0.532758040268      1.601236618627     -0.567406740987
H      0.575022386320      2.101137901717      0.722569590417
C      0.027392944951     -1.076048470500     -0.462635692680
H     -0.816997972387     -1.390589920981      0.137538112666
C      0.831434579612      0.048540563912      0.112555098264
H      1.269286207909     -0.269068463854      1.063964738115
H      1.644662347102      0.309101173349     -0.566671439493
