14
OptimizedStructure
C      0.894633354924     -0.679666154350     -1.464437690425
H      1.533412075725     -1.141680926508     -2.197573169899
H      0.530987863137      0.302797292248     -1.715192003893
O      1.026601360131      1.797317418040      0.921673506571
C     -0.052598087166      1.733977096116      0.406614653922
H     -0.478829271321      2.607195671545     -0.131057641504
C     -0.976474757467      0.549402930101      0.443232096974
H     -1.717495605913      0.770245653486      1.218761115863
H     -1.514425261053      0.470944879045     -0.502862028216
C      0.601867672663     -1.285325793961     -0.329795934213
H      1.011936659278     -2.267311679225     -0.128985890434
C     -0.255511567877     -0.753347876037      0.777926704085
H     -0.987691433297     -1.518370328249      1.051329894647
H      0.383586998234     -0.586178182252      1.650366386522
