14
OptimizedStructure
C     -0.047438613926      0.987558173965     -1.360726668391
H     -0.368002567642      1.706128916296     -2.090486537690
H     -2.566099608436     -0.595934997758     -1.347835314684
O      0.974333558134      0.125180641058     -1.749983612808
C      1.310713410947     -0.703888240726     -0.817017769761
H     -3.073393951473     -1.168061980386     -1.495070650651
C      1.156309171473     -0.183671888693      1.677945739178
H      1.786194690284     -1.040659394146      1.897297384846
H      1.787095565381      0.698253950239      1.592584651607
C     -0.427047171784      0.727888856889     -0.115086007460
H     -1.179737962397      1.223558211393      0.463173875832
C      0.408588873772     -0.422332177037      0.367385589503
H     -0.215414669877     -1.318943444459      0.482881886851
H      0.453899275544     -0.035076626635      2.494937433627
