14
OptimizedStructure
C     -0.365312228779      0.574985789046     -1.485721747121
H      0.238043143287      0.597716426107     -2.397987741471
H     -2.305533497536     -1.098428264427     -0.948778213820
O      0.432144268037      1.153423407650     -0.425869560892
C      0.610106002884      0.186182540825      0.463251058722
H     -3.140037703908     -1.073645848314     -0.696261434779
C      1.458738951593      0.477782894766      1.644592147118
H      1.356512769827     -0.306844068363      2.388417228008
H      2.503294864004      0.545461276018      1.339396095019
C     -0.681632613926     -0.836608216375     -1.131066759032
H     -1.242378110769      1.202385790204     -1.647589304888
C     -0.027388225619     -0.981630462877      0.115488463875
H     -0.013920562868     -1.877912431191      0.706950768086
H      1.177362943773      1.437131166932      2.075179001177
