14
OptimizedStructure
C     -0.379226509129      0.654762585036     -0.677729943178
H     -0.250920246051      0.587843516325     -1.767313103496
H     -3.021237275690      0.217462009910     -2.232559112168
O      0.841865453242      1.060427152741     -0.088070474588
C      1.251201556025      0.100990673102      0.803551351201
H     -3.692170078605      0.016614425676     -2.570537852474
C      2.371026723994      0.200453727000      1.516976848504
H      3.017361488669      1.052521376862      1.425327634311
H     -1.150508535971      1.409779266934     -0.469869472579
C     -0.694472425365     -0.669865540521     -0.057149921345
H     -1.574146140524     -1.229146054223     -0.312769288228
C      0.270542635662     -0.976125835290      0.805964726656
H      0.360370931914     -1.849674638781      1.421644232740
H      2.650312421830     -0.576042664770      2.202534374643
