14
OptimizedStructure
C      0.594411317827     -1.073682301887     -1.807708262166
H      1.499145600468     -1.169416594783     -2.382987449692
H     -0.329430721337     -1.211010719934     -2.346183767216
O      1.002403542836      2.200244993923      1.621526555547
C      0.393680464303      1.609703838356      0.775019337299
H      0.636763717954      1.734298717332     -0.298475096152
C     -0.762626321155      0.685743459472      1.026080430566
H     -0.900817934929      0.577338937688      2.102422766864
H     -1.641072685887      1.195342183935      0.620886383832
C      0.611203972175     -0.808439724478     -0.515343343788
H      1.551581593726     -0.677919635106      0.005520858346
C     -0.612624744034     -0.693917225330      0.340722514439
H     -1.495862899419     -0.911040990338     -0.261535466285
H     -0.546754902527     -1.457244938851      1.120054538407
