14
OptimizedStructure
C     -0.099001531817     -1.578769761456     -1.304032791583
H     -0.681707507179     -2.472015585340     -1.449392847230
H      0.185745635487     -1.044866485706     -2.195809709532
O     -2.149065398858      1.457155230753     -0.022732526689
C     -1.286427220582      0.949505320378      0.634939870873
H     -1.527643269363      0.171825679672      1.384954873252
C      0.173507248912      1.299138527309      0.563385686761
H      0.297649785772      2.118933957513     -0.144598871183
H      0.468665939112      1.649507383220      1.554926928994
C      0.245189003825     -1.154895499976     -0.102930498095
H     -0.049783873533     -1.713905882603      0.775365805438
C      1.049470143348      0.087753823880      0.146703756959
H      1.786553251987     -0.115877437656      0.925348011153
H      1.586847792890      0.346510730012     -0.766127689118
