14
OptimizedStructure
C      0.523990908540     -0.541503300129     -2.201570639826
H      0.270602252889     -0.553079336866     -3.244072823667
H     -2.524199365351      1.829986321097      2.086761994640
O      1.820494340249     -0.143352279831     -1.885352547283
C      2.047315407358     -0.145541818241     -0.612926790264
H     -3.295159064867      1.850821495344      1.990019277661
C      0.260717721716      0.306625399247      1.153275400302
H      1.034384358377      0.451542662678      1.901676821154
H      0.003822000224      1.273692776943      0.726405182612
C     -0.155013143153     -0.835189554320     -1.099412071407
H     -1.171399301970     -1.160830344068     -1.017200814829
C      0.776862593634     -0.625832806791      0.058848731410
H      1.030757759807     -1.590607811661      0.518040785939
H     -0.623176467454     -0.116731403402      1.625507493558
