14
OptimizedStructure
C     -0.562253177770     -0.041072054052     -1.069256880730
H      0.007543826088      0.442958670066     -1.878255009114
H     -1.454932944374     -0.509460001280     -1.491136456245
O     -1.077923093169      0.955657302134     -0.193631716230
C     -0.173312585039      1.813502495959      0.379522957584
H     -0.200769119657      2.814714469288     -0.045225601555
C      0.620641649555      1.518697705408      1.392845773819
H      0.638816412650      0.536943620853      1.833717747711
H      1.271605565253      2.261950572585      1.816189148518
C      0.298695765771     -1.073911757192     -0.401502855264
H      1.293460311848     -0.749337285810     -0.127328195000
C     -0.104240494531     -2.303825207765     -0.143982673683
H     -1.091883206433     -2.642577685555     -0.410618622550
H      0.534551089809     -3.024240844638      0.338662382740
