14
OptimizedStructure
C     -0.394440540670      0.170428844975     -1.584795529045
H      0.505281370331      0.506596758936     -2.128957677092
H     -1.216789939976      0.133716417411     -2.312225194334
O     -0.744209445491      1.111806709367     -0.587779485501
C     -0.448496032188      0.585895089894      0.691830125152
H     -1.279405992561      0.840903077831      1.353477773368
C      0.870815045387      0.891288490542      1.274083686178
H      1.688101329708      1.120764702849      0.617399743334
H      0.962631121444      1.141459908314      2.312970871388
C     -0.162018408126     -1.135861470598     -0.900940899008
H      0.486978411385     -1.858014307585     -1.367390403181
C     -0.217876443141     -0.944137717643      0.510591478944
H     -0.877712349664     -1.536060644403      1.131093012652
H      0.827141873562     -1.028785859890      0.990642497144
