14
OptimizedStructure
C      0.426777664903     -0.056888658215     -0.693513330923
H      1.404062153237      0.217885039753     -0.262550969410
H      0.303987184021      0.528270514809     -1.621984955242
O     -0.612578190912      0.250894293503      0.213948943447
C     -0.647938650914      1.566548016417      0.606367875009
H     -1.349306988520      2.182805635771      0.047718881928
C      0.073601679259      2.052919483067      1.598683685591
H      0.763546984676      1.433161196814      2.145960487696
H     -0.014009318725      3.080196304746      1.900962486900
C      0.427121695812     -1.516415334494     -1.028558999571
H      1.200350658214     -1.799688307891     -1.730544105367
C     -0.417968658874     -2.399096254609     -0.533839550892
H     -1.181330757843     -2.101015856924      0.163081166202
H     -0.376315454334     -3.439576072746     -0.805731615369
