14
OptimizedStructure
C      0.813607028120     -0.904529315780     -1.495035620689
H      1.489327544148     -1.460718222122     -2.122247210558
H      0.548034011143      0.081615273594     -1.837322291126
O     -1.182048963318      1.822642904800     -0.746654240460
C     -0.372737284341      1.819000756112      0.136124092167
H      0.195401273970      2.737714541533      0.391098063732
C     -0.034240240953      0.657700856754      1.025105869035
H      1.051548421137      0.600592916969      1.129213244025
H     -0.436414474459      0.914043546418      2.010736250056
C      0.326215505603     -1.408646927107     -0.376769806899
H      0.606868135254     -2.407363210994     -0.069049607977
C     -0.613397625957     -0.678004809706      0.541777467468
H     -1.546468831682     -0.465815876155      0.012596353601
H     -0.845694498665     -1.308232434317      1.400427437624
