14
OptimizedStructure
C      0.474204038135     -1.574469786235     -1.724329223726
H      1.063345298807     -1.545239528475     -2.624161527509
H      0.092833292534     -2.540357159329     -1.434527469430
O      1.021320869295      2.590920709530      1.094433374434
C      0.650250921728      1.462620226902      1.251067039084
H      1.303293547458      0.708000248170      1.735334747266
C     -0.691577201851      0.921654782010      0.851552373494
H     -1.298297148161      0.882333616477      1.761793781772
H     -1.170712504217      1.613054188611      0.156006306722
C      0.230254703260     -0.490123819483     -1.013066606872
H      0.626064742610      0.466552434399     -1.326608262513
C     -0.583986611139     -0.479005604062      0.250927044010
H     -1.587079888565     -0.859575906914      0.041253117461
H     -0.129914059896     -1.156364401602      0.980325305808
