14
OptimizedStructure
C      1.342638122993     -1.403055543244     -1.252125771045
H      2.189532394854     -2.068046266565     -1.266431551211
H      1.189978180391     -0.803798147117     -2.134531853629
O     -0.678807373587      2.393834291534     -0.637285608533
C     -0.530879669425      2.038380464431      0.496363990715
H     -0.395222772099      2.777346157731      1.312666142374
C     -0.507655107062      0.619401570640      0.987147273264
H      0.437952280880      0.482330559037      1.519889411859
H     -1.300391084808      0.526472153731      1.733897989711
C      0.530224779566     -1.323712153612     -0.215971837432
H      0.702921446611     -1.933618553917      0.662700912279
C     -0.655769715560     -0.413997208622     -0.140790198104
H     -0.769013797791      0.120271897591     -1.086266560195
H     -1.555507684965     -1.011809221619      0.020737659948
