14
OptimizedStructure
C     -0.057873517715      0.152387259484     -1.522276549371
H     -0.488047329042      0.383892174930     -2.477416057591
H     -1.251567936452      3.295069968253     -0.951101398389
O      0.443497368581      1.228587925823     -0.794641190530
C      0.934294353208      0.875037600303      0.347770058096
H     -1.954685703900      3.457858031419     -1.241927369590
C      0.087968586201     -1.112093151334      1.705936838242
H      0.619193662431     -0.744584203939      2.578916718420
H     -0.930632131477     -0.731797562815      1.733348922652
C      0.108250887834     -0.980309406406     -0.850509017044
H     -0.178795005604     -1.969099218256     -1.143287593370
C      0.793025848634     -0.630400686348      0.438984129828
H      1.817642151292     -1.025653622862      0.441870545655
H      0.057728766008     -2.198895108252      1.734331962992
