14
OptimizedStructure
C     -0.095043602540      0.218824744417     -1.456187170170
H     -0.676223285066      0.581663171096     -2.282419777494
H     -3.213543341695      0.562552576736     -1.503669693916
O      1.281620046707      0.153617500907     -1.656863125383
C      1.917533672386     -0.282177452079     -0.619485951967
H     -3.977268466517      0.677458529917     -1.596247055169
C      1.139562149371      0.079586711104      1.784595919524
H      2.120938347441     -0.210550296123      2.147987255910
H      1.115630565783      1.161404027608      1.674863804467
C     -0.408001129956     -0.198607859446     -0.235466687114
H     -1.376754914018     -0.259153961782      0.216803163021
C      0.875949883010     -0.589933380415      0.436922757442
H      0.910283269954     -1.678441582903      0.578939957530
H      0.385316805140     -0.216242729038      2.510226603320
