14
OptimizedStructure
C      0.031304498332      0.008635577608     -1.788378489284
H     -0.088779305410      0.468101137441     -2.751920767914
H     -2.753741115664      0.254560210881     -0.908806045540
O      0.364806697819      0.857799444298     -0.776133361464
C      0.591717447667      0.145877628089      0.309282613950
H     -2.990250113727      0.495038039154     -0.206539439684
C      1.028309523444      0.815356431404      1.561604917400
H      1.986036344156      0.414508981101      1.892121457627
H      1.130391963577      1.883881636356      1.390051156126
C      0.050527270946     -1.334611981436     -1.464910117450
H     -0.736089192877     -1.428448804546     -0.316178044940
C      0.373433016637     -1.218382048053      0.027218039166
H      0.709214729919     -2.012935231515      0.673795047623
H      0.303118235181      0.650618979218      2.358793034384
