14
OptimizedStructure
C     -0.020614510792      0.495089874640     -1.322944657014
H     -0.386347486493      1.151914757056     -2.099147688964
H     -2.593858177492     -1.036087198387     -0.734519812198
O      1.216082976119      0.747214988076     -0.868383963130
C      1.295380343640     -0.169484452881      0.197978801396
H     -3.370464851345     -1.017020128993     -0.545831032221
C      1.324302470336      0.496332177900      1.399719769474
H      1.168764458539     -0.046114469218      2.316821764909
H      1.795694059207      1.463219624965      1.471314850626
C     -0.477915409075     -0.850256688846     -1.048169730364
H     -0.682860410630      1.129755213470      0.066796937999
C      0.466374061470     -1.286551339117     -0.131976837002
H      0.490161113214     -2.226756483919      0.382372059875
H     -0.224698636698      1.148744125253      0.915969536614
