14
OptimizedStructure
C      0.267242969826     -0.059154192644     -0.941566687801
H      1.066640998029      0.509243053000     -1.436843626203
H     -0.684198764923      0.169959565789     -1.446583386744
O      0.184046209022      0.314883006498      0.423482828766
C     -0.150433641170      1.606981210186      0.666961943344
H     -0.356639499383      2.217770952951     -0.207438687278
C     -0.227423452383      2.097958215229      1.892953376708
H     -0.020396574455      1.485111031933      2.750729529904
H     -0.500614011774      3.122073082142      2.058710355664
C      0.545939170445     -1.535688690783     -1.015477494748
H      1.501895955014     -1.821898690884     -1.429286335538
C     -0.300559397761     -2.444372885692     -0.569982199094
H     -1.249074529509     -2.166401751551     -0.141644584206
H     -0.076425430977     -3.496463906175     -0.604015032775
