14
OptimizedStructure
C      0.767123378891     -0.086208801226     -0.572641413228
H      1.847141519921     -0.010547086992     -0.767689955612
H      0.267044560675      0.674094464728     -1.180963493692
O      0.558850263424      0.133418941098      0.808265253691
C     -0.113771842048      1.221582193607      1.240646229039
H     -0.191610455969      1.167279407675      2.319809084493
C     -0.625813611768      2.246415650550      0.577188875786
H     -0.579493968043      2.365437772313     -0.490628792246
H     -1.130420739133      3.025321273242      1.115773621234
C      0.284217528776     -1.441882224847     -1.002860714030
H      0.500503451385     -1.670499079714     -2.038029223952
C     -0.349077452743     -2.298640773932     -0.226220989637
H     -0.558050161682     -2.067795427064      0.804291259590
H     -0.676642471684     -3.257976309439     -0.586939741436
