14
OptimizedStructure
C      1.008823789580     -0.418367474702     -2.104188460932
H      1.528547852527     -0.387445058865     -3.040990474120
H     -1.682868734736     -0.529098676406      2.777106637077
O      0.982379530374      0.714616307970     -1.378750546690
C      0.284541843342      0.454981398159     -0.251198670141
H     -2.099364653089     -0.882474120989      3.331532879215
C      0.104565995147      1.553022860424      0.735563258448
H      1.071481599595      1.909875115178      1.088669981370
H     -0.416834932470      2.393607198901      0.278931441023
C      0.338405498548     -1.410933914943     -1.464879925045
H      0.195454195623     -2.416711762465     -1.802970289892
C     -0.134755285412     -0.841888507523     -0.255248977953
H     -0.707796548158     -1.335970046460      0.502865835738
H     -0.472580150870      1.196786681722      1.583557311902
