14
OptimizedStructure
C      0.222773236721     -0.056144677207     -1.769645279146
H      0.238561470405      0.264878388972     -2.792041137179
H     -2.624969644299      0.201879463486     -0.261607510766
O      0.802867959991      0.750979670583     -0.862420423184
C      0.667385432757      0.162139820949      0.345957805587
H     -3.284131792301      0.589057490295     -0.114142202959
C      1.223729685701      0.853920209136      1.538664725650
H      2.294774521502      1.013951326122      1.420490612921
H      0.751591910094      1.827192451581      1.668319407186
C     -0.287626080543     -1.161919229133     -1.168633880805
H     -0.803982557706     -1.973525117827     -1.639341387783
C      0.002531419149     -1.020298667099      0.212738729811
H     -0.252059140611     -1.704679240433      0.996173340956
H      1.048553579140      0.252568110577      2.425487199711
