14
OptimizedStructure
C     -0.021884331557     -0.381755141783     -1.195665857417
H     -0.324579253497     -0.173033978329     -2.210618063249
H     -2.323959821425      1.973237480872     -0.466508938494
O     -0.944158363388     -0.118111300105     -0.224199604648
C     -0.193098384713     -0.430263072513      0.910686261400
H     -2.597306304302      2.698612374144     -0.545793276716
C      0.478665831983      0.754434226297      1.237329258995
H      0.900484677496      0.720728031773     -0.343329240041
H     -0.085047662893      1.675205302619      1.241826767508
C      0.729546984729     -1.525580587086     -0.782231503904
H      1.363764718272     -2.113024763221     -1.415776716434
C      0.614744065302     -1.576836381465      0.575521988889
H      1.109759475064     -2.219771420654      1.273719669632
H      1.293068368929      0.716159229451      1.945039254479
