14
OptimizedStructure
C      1.043666340170     -0.157769912649     -1.188598278760
H      2.080570004357     -0.234958975079     -1.495868463548
H      0.384784288940      0.046499427648     -2.031473383673
O      1.022230792745      1.214537764512     -0.388423338677
C     -0.152828597977      1.466591748141      0.132870559565
H     -0.866789946757      2.017075932143     -0.486385066658
C     -0.621875123250      0.672961676488      1.167511018094
H      0.082248045331      0.346865898933      1.918028669572
H     -1.615458283147      0.867610700834      1.546644663377
C      0.578153111756     -1.153312574257     -0.268534173356
H      1.317973017461     -1.632431979061      0.357364198378
C     -0.712818226916     -1.013903183914      0.219805915830
H     -1.496090098915     -0.747725165183     -0.477223608197
H     -1.043765323800     -1.692041358558      0.994281288052
