14
OptimizedStructure
C      1.436614412368     -2.007117626765     -0.348325930525
H      2.011533752598     -2.720889084373      0.216523377249
H      1.624799534365     -1.977363243217     -1.409307766838
O     -2.455977720727      1.247659336052      0.626001961941
C     -1.382767503026      1.778995414096      0.618106489387
H     -1.244706584184      2.793390527562      1.044763768352
C     -0.113464284952      1.200351575926      0.062280260554
H      0.253825125066      1.896938442889     -0.695125599537
H      0.625348667916      1.207882084453      0.868905694384
C      0.544467571324     -1.218267387113      0.219587799027
H      0.370656006366     -1.269589300185      1.287107801799
C     -0.287738181217     -0.214293187674     -0.511316546848
H     -0.039445678982     -0.231222960933     -1.572732411786
H     -1.343145116915     -0.486474590718     -0.406468897159
