14
OptimizedStructure
C      1.109850423752     -0.744755956736     -1.388812530530
H      1.455429066211     -1.231018754188     -2.285173051126
H      1.440800443098      0.269199346290     -1.238684920780
O      0.996252450908      1.881329625929      0.862992796503
C     -0.135001724296      1.793828014750      0.479720395060
H     -0.679841428146      2.685647893957      0.106053911001
C     -0.977096430110      0.551110550036      0.475567913109
H     -1.732885937954      0.704675676036      1.252822284324
H     -1.507834916374      0.490339337879     -0.477144393843
C      0.336054798678     -1.361653321331     -0.515380135794
H      0.031540172239     -2.384552124769     -0.693824559829
C     -0.182834535045     -0.732703120270      0.747796780018
H     -0.812927591770     -1.447435655513      1.277484195205
H      0.658495208809     -0.474011512072      1.396581316681
