14
OptimizedStructure
C     -0.459667649135      0.001089540125     -1.018960301769
H      0.227198822012      0.629978550763     -1.598080754518
H     -1.277766070614     -0.326117185198     -1.667495908905
O     -1.102172926845      0.780949461817     -0.019831888663
C     -0.338205798553      1.551192597194      0.786763340271
H     -0.981019835629      2.086294205703      1.474127140689
C      0.975620379165      1.706759667301      0.803545102189
H      1.644153922919      1.190353381765      0.139415820338
H      1.425905124317      2.379979616941      1.508016786632
C      0.256520313719     -1.196451595978     -0.450090085258
H      1.335107076095     -1.143861599317     -0.403176029045
C     -0.383355135738     -2.253097856247      0.014269809610
H     -1.458765195922     -2.315778662803     -0.014298516744
H      0.136446974208     -3.091290122065      0.445795485172
