14
OptimizedStructure
C     -0.057389010061      0.506265918501     -1.075743013525
H      0.321928956288      0.374094677775     -2.098532685871
H     -3.339562219917      0.311573661824     -1.336473352769
O      0.979288190619      1.003356288101     -0.250363154647
C      1.193144805351      0.124314804727      0.781489194184
H     -4.095060500270      0.327455545597     -1.519691004077
C      2.109880873358      0.320501544733      1.726998175497
H      2.735824656281      1.192483739725      1.725098888581
H     -0.875452938804      1.239555966004     -1.110333430709
C     -0.471894458367     -0.787853948450     -0.449499694760
H     -1.248690128821     -1.403388734389     -0.861617581669
C      0.270184906937     -0.993145060119      0.635473916459
H      0.236867265014     -1.819540738936      1.318247813783
H      2.240929602390     -0.395673665093      2.514945929524
