14
OptimizedStructure
C     -0.730702543922      0.461485148374     -0.784599400702
H     -1.343879183992      0.989037727055     -1.488370261072
H     -3.103548721414     -0.705300198384     -2.470564565298
O      0.237457941970      1.166415607454     -0.170704539222
C      0.882931902817      0.322422487817      0.663476747574
H     -3.702366363014     -0.891314218360     -2.931104900762
C      2.011754609349      0.851798640695      1.473841347393
H      2.424306377557      0.058146376177      2.089210564088
H      2.794137091051      1.244829561476      0.825561677170
C     -0.723835603053     -0.828849826975     -0.361374878140
H     -1.376688837567     -1.618444007237     -0.673722252776
C      0.329227629264     -0.920260492589      0.583857201892
H      0.630047153305     -1.792418129893      1.127457748648
H      1.671158547650      1.662451324389      2.117035511207
