14
OptimizedStructure
C      0.580025199683     -0.156041581394     -1.841039684909
H      1.756752036894     -0.124004238794     -1.020462097936
H     -2.218937837610      1.197651092635      0.801117249918
O      0.031868215389      0.858109305258     -1.065880010067
C     -0.227005024333      0.322523989100      0.137259553345
H     -2.938124220745      1.483179671158      0.938668059374
C      0.707257036591      0.753701423688      1.075823717463
H      1.030129727945      1.783500411174      1.048802802836
H      0.760817087198      0.267207818768      2.036921307917
C      0.051902306162     -1.391128009630     -1.214394887165
H      0.164842017268     -2.366101873466     -1.649284012124
C     -0.519249381361     -1.082132659924     -0.027236857634
H     -0.972041823306     -1.713075818004      0.712069083817
H      1.791764660224      0.166610469429      0.067635775166
