14
OptimizedStructure
C     -0.858795552660     -0.310162678376     -0.217065593654
H     -1.134133859430      0.520538062675     -0.887205361476
H     -1.727261133539     -0.957369062693     -0.074518327011
O     -0.570669253584      0.201321438493      1.077180192594
C      0.427187193245      1.144686549264      1.134386094336
H      1.429047973083      0.746529143206      1.279271546426
C      0.193779221806      2.442466836184      1.074309167673
H     -0.803016847717      2.825507608865      0.936129806498
H      0.988624783908      3.158231685338      1.177638540900
C      0.278057892590     -1.079986808827     -0.823795680530
H      1.182922572450     -0.510955684126     -0.993303699413
C      0.217550932016     -2.360110392720     -1.136136590355
H     -0.674816317419     -2.941006986291     -0.970146455160
H      1.051522395249     -2.879689710992     -1.576743640828
