14
OptimizedStructure
C      0.740443184638     -1.573618978880     -1.764356606281
H      0.355411705527     -2.374366652515     -2.372088131633
H      1.670118484102     -1.134620192472     -2.087738700275
O     -1.198051466461      2.354633448990      2.198266016419
C     -0.949846396417      1.297147526795      1.693612413040
H     -1.109735392096      0.348741290199      2.247316071028
C     -0.427274674238      1.098810064882      0.301839393584
H     -1.297716911108      0.863466075024     -0.319159789788
H     -0.016781442489      2.041046304866     -0.062476150463
C      0.116119592482     -1.153989613580     -0.680832975722
H     -0.816624653489     -1.611658510923     -0.375834084722
C      0.600016792627     -0.045365343630      0.201231969688
H      0.788168548940     -0.449487887102      1.200862353798
H      1.545752627982      0.339262468346     -0.180641778672
