14
OptimizedStructure
C     -1.190915920001     -0.327342512464     -0.350010119281
H     -1.887835940789      0.212019798557     -1.008911861414
H     -1.725156191973     -1.169095595056      0.104982201801
O     -0.870979711076      0.541938391413      0.730979362313
C      0.351699414691      1.123810820162      0.792433598283
H      1.110137544371      0.733788867966      0.123175802699
C      0.618635034253      2.090614805926      1.656148310402
H     -0.135343657586      2.467587931634      2.322469499312
H      1.602525745769      2.513621918717      1.718606874364
C     -0.041065474673     -0.836847549505     -1.169661477224
H      0.356540542209     -0.151901850073     -1.907733166639
C      0.461227428069     -2.050910793252     -1.041306456520
H      0.076282951769     -2.748407450730     -0.315434500986
H      1.274248234967     -2.398876783296     -1.655738067110
