14
OptimizedStructure
C      0.992498045039     -0.186944869428     -1.976885405569
H      1.572736677953      0.354069079882     -2.697487298973
H     -0.332732391686      3.016910407770      2.639484963812
O      0.630361122097      0.471515451089     -0.860618831498
C     -0.084648125105     -0.386904579689     -0.100946616288
H     -0.246460404657      3.723498183575      2.951292080679
C     -0.612331300962      0.092202050341      1.204185723191
H      0.205650366334      0.410454705376      1.850171826875
H     -1.277639109251      0.942402220906      1.055182357211
C      0.523281940604     -1.460906202926     -1.953862586573
H      0.656296350966     -2.212355421390     -2.704854103237
C     -0.180023152705     -1.592326280013     -0.729574030198
H     -0.685869292933     -2.464809177136     -0.369567671905
H     -1.161120725694     -0.706805568355      1.693479592472
