14
OptimizedStructure
C      0.781532369267      0.045996768727     -0.848853186845
H      1.642146744086      0.056929412013     -1.526221331562
H     -0.022226176287      0.659446119780     -1.279388794174
O      1.265367741401      0.634416276001      0.349953581666
C      0.301321725489      0.862703355765      1.304517472803
H      0.191426224027      0.068683280460      2.039172110555
C     -0.414369743665      1.969949602679      1.358973515799
H     -0.296891020944      2.749941867990      0.625895461875
H     -1.128431711989      2.134199499128      2.144786836084
C      0.309512586736     -1.364275727783     -0.646622965086
H      1.018698373403     -2.010179516160     -0.146553412380
C     -0.876599242058     -1.808616465658     -1.014806451984
H     -1.592840362729     -1.169649715142     -1.505772374688
H     -1.178647506737     -2.829544757800     -0.855080462064
