14
OptimizedStructure
C      0.594455331878     -0.081053779235     -0.612044669581
H      1.363105872703      0.141529617357     -1.366888055016
H     -0.327033667793      0.430655427298     -0.893705092797
O      1.092227502918      0.375081880257      0.638728731872
C      0.464289147333      1.361653057353      1.312985215487
H      0.976338369821      1.506648943290      2.256562000813
C     -0.582838022893      2.104436118950      0.990154576041
H     -1.131804518343      2.015693439775      0.069922537224
H     -0.931359285774      2.852027895444      1.676500250269
C      0.368838469044     -1.563238094317     -0.551865827327
H      1.170091826632     -2.118999227600     -0.085759135563
C     -0.710046069176     -2.167790898618     -1.009683211936
H     -1.517452491608     -1.620430110719     -1.468623655680
H     -0.828812464742     -3.236214269235     -0.956283663806
