14
OptimizedStructure
C      0.198465425936     -1.309205165846     -1.893763700990
H      0.924705958971     -1.420727458970     -2.680473450125
H     -0.794696948262     -1.670221462049     -2.107341254716
O      1.110404427058      1.210883832697      2.278386924160
C      0.595752898124      1.506140316329      1.236955372890
H      1.059531610907      2.260773296950      0.570563902272
C     -0.679481219493      0.903281806312      0.713506826669
H     -1.440174178195      0.981267752480      1.493391257435
H     -1.018424959487      1.429896436799     -0.178140358381
C      0.503060518203     -0.769290770036     -0.729245420947
H      1.506416543660     -0.412099433346     -0.534785368722
C     -0.465525996622     -0.590140146217      0.396451693186
H     -1.424306323003     -1.044056310669      0.140254493736
H     -0.075727757799     -1.076502694434      1.294239083534
