14
OptimizedStructure
C      1.662316954868     -0.805814957094     -0.666003100812
H      2.295993743581     -1.156330408243     -1.462196904895
H      2.127033471248     -0.135452877405      0.038422392436
O     -1.279074457114      1.226455013474     -1.373337117352
C     -0.866934653636      1.602574230458     -0.314391584845
H     -0.750182588632      2.685537667646     -0.098380354248
C     -0.474605505566      0.729053337235      0.841447750314
H      0.533000662152      1.010527114369      1.153109707935
H     -1.142103881990      0.972036312511      1.673899661139
C      0.400642800168     -1.181792869472     -0.572662171894
H     -0.004008842811     -1.862578858471     -1.308502817876
C     -0.560450549518     -0.759392251785      0.503432587476
H     -1.577289044956     -0.982118876812      0.176838851337
H     -0.364338107793     -1.342702576412      1.408323101284
