14
OptimizedStructure
C     -0.837216828925      0.290209902247     -1.066943799344
H     -0.990706461704      0.344458338101     -2.151711614877
H     -1.747374789578     -0.104013653439     -0.596721377589
O     -0.592266425633      1.636303760448     -0.676004307779
C      0.158943513024      1.634181484252      0.526397867538
H      0.999278419337      2.311372783940      0.480970108615
C     -0.073855694817      0.751814585228      1.460466144771
H     -0.986567689051      0.202461364891      1.593458258350
H      0.812597163889     -0.766004131105      1.262566744539
C      0.368034244020     -0.525224478966     -0.739026975626
H      1.257611736184     -0.201165407746     -1.263817193313
C      0.565456327218     -1.453491621450      0.343410937113
H     -0.333766997365     -1.989230808642      0.640999552235
H      1.399833483398     -2.131672117759      0.185955655365
