14
OptimizedStructure
C      0.459687269220     -0.162661454882     -0.694333701995
H      1.401517944220      0.042544624893     -1.230038083066
H     -0.365416748518      0.265910025322     -1.277359319476
O      0.539315414065      0.431841789338      0.586821937558
C     -0.127993186158      1.592279077355      0.787467091154
H     -0.749113948992      1.933625251620     -0.036801776774
C     -0.043614951653      2.271140088314      1.920042311400
H      0.573090795515      1.928906491503      2.730325743612
H     -0.595871392598      3.180498797823      2.056559974003
C      0.288455819309     -1.645734926136     -0.552252328049
H      0.896918618638     -2.089300135161      0.222549095695
C     -0.527276126238     -2.373516161334     -1.289647915838
H     -1.142186768151     -1.936267955846     -2.059665398820
H     -0.607512738659     -3.439265512809     -1.163667629404
