14
OptimizedStructure
C      0.903809733882     -0.360507630351     -2.286529708154
H      1.336835251812     -0.070193271135     -3.222936609388
H     -2.025058274614      1.664501762966      3.028566737848
O      1.002603055462      0.512435903026     -1.267171710485
C      0.398129026179     -0.048337800305     -0.197032656985
H     -2.611199339748      1.911442824184      3.475391438622
C      0.363086159795      0.714993328723      1.078604095273
H      1.374023777614      0.947130783856      1.411928145629
H     -0.168849381318      1.656597647985      0.943284362431
C      0.243821651606     -1.480509436201     -1.894537760138
H      0.018798128849     -2.340415809307     -2.491424905508
C     -0.086740455807     -1.277589430534     -0.530600046185
H     -0.612785223114     -1.954953071318      0.110666042204
H     -0.136474110598      0.125404198411      1.841792574838
