14
OptimizedStructure
C      1.118685499451     -1.615930672070     -1.396019566396
H      2.136658949331     -1.945749612752     -1.509392001561
H      0.419331333907     -1.961336607115     -2.139996789742
O      0.338282437682      2.317611401016     -0.196522212177
C     -0.130611135335      1.902267581114      0.823598976942
H     -0.122232732729      2.516896323830      1.748530954865
C     -0.792628908553      0.567231089884      1.013717555898
H     -0.367996732622      0.094074815511      1.903033079791
H     -1.845838790868      0.768377584045      1.234231392312
C      0.744949213878     -0.828744962590     -0.405264712246
H      1.471844692882     -0.493080330452      0.322174417941
C     -0.661701990564     -0.340151408353     -0.206088751246
H     -0.975763737521      0.214801100108     -1.093719672960
H     -1.332978098938     -1.196266302176     -0.098282671421
