14
OptimizedStructure
C      1.146375881875     -1.158328595520     -1.463110795317
H      2.168067634738     -1.395857170447     -1.702744665677
H      0.467061050084     -1.079488005051     -2.296185295081
O      0.807020669636      1.906456159567     -0.240319906175
C     -0.236260618574      1.830528713799      0.342542981997
H     -0.919765850122      2.703366091392      0.392814741151
C     -0.744371088170      0.608878357704      1.059761168638
H     -0.112036748707      0.460855671595      1.940005666662
H     -1.770245236519      0.766965354414      1.393236586749
C      0.747422064491     -0.964751300330     -0.220969844264
H      1.450653965717     -1.042036637432      0.597712048849
C     -0.659161156372     -0.645675479929      0.173973443687
H     -1.273028456908     -0.504926812830     -0.717854687846
H     -1.071732111168     -1.485986346932      0.741138556626
