14
OptimizedStructure
C      0.868095182380     -2.004886237686     -0.886865643826
H      0.775848651052     -3.054246508737     -0.665514363641
H      1.712468167168     -1.719416572761     -1.494556825944
O     -1.724610916773      0.225036336041      1.692215678648
C     -1.113591221276      1.192416674833      1.336770362881
H     -1.491865433999      2.209338984984      1.568925377968
C      0.178356156936      1.181825010433      0.565317851535
H      0.470921206235      2.203945508458      0.323914041313
H      0.948692090783      0.739492439946      1.202754424031
C     -0.006659470695     -1.119518019616     -0.449474939740
H     -0.844227106622     -1.424507674902      0.161307210447
C      0.079225039191      0.348162080955     -0.728379084439
H      0.956616111456      0.556739623237     -1.344209006565
H     -0.809268455836      0.665618354816     -1.282205082668
