14
OptimizedStructure
C      0.611348574409     -1.187314496227     -1.788671152699
H      0.642909482149     -1.956119208767     -2.540999983776
H      0.844774236242     -0.190843235104     -2.125740655409
O     -1.509673514560      2.392873627697      1.737169793211
C     -0.551522650812      1.801886536087      1.327338820251
H      0.454039168969      1.971856196868      1.765136634456
C     -0.553326509838      0.799348465363      0.213693017101
H     -1.579915070119      0.535581251025     -0.045103398452
H     -0.095661692644      1.286069840637     -0.651514240261
C      0.308502914079     -1.458986363847     -0.533128330768
H      0.090473033906     -2.479236556907     -0.247815605023
C      0.254229224511     -0.450982439750      0.581503413006
H     -0.190413737103     -0.912428240604      1.464779935364
H      1.274236540811     -0.151705376472      0.843351752996
