14
OptimizedStructure
C     -0.006669184010      0.112574988083     -1.611559876637
H     -0.500495664433      0.525485674684     -2.473562400047
H     -2.808066726594      1.329050067842      0.284333582685
O      1.108543314492      0.723122322110     -1.200083465471
C      1.661260440434      0.049531859757     -0.127016647130
H     -2.329522729622      0.947380982567     -0.197951454259
C      0.747836997886      0.322201392022      1.337527629004
H      1.483390157441      0.120446146390      2.106253410083
H      0.668487841148      1.388982960805      1.146132340036
C     -0.305857550292     -0.969067807043     -0.859398360805
H     -1.136416402994     -1.636955969919     -0.968064445550
C      0.733767793243     -1.027536911577      0.131174817285
H      0.926226340166     -1.891239157191      0.742545855056
H     -0.242484626865      0.006023451468      1.689669015752
