14
OptimizedStructure
C      1.172500793357     -0.290941795658     -2.171553074296
H      1.724840102947      0.025588317369     -3.033748947023
H     -2.347820282122      1.593802717509      2.826871733343
O      1.163401167539      0.536246836412     -1.110158837204
C      0.418336613769     -0.051176336564     -0.148458805983
H     -2.979260635438      1.838253358053      3.208606499149
C      0.242195956386      0.659685545022      1.145682569589
H      1.208840629627      0.849878338089      1.610884370739
H     -0.247651716631      1.620403388125      0.987707418289
C      0.444098753634     -1.407462457166     -1.913756460623
H      0.275801403674     -2.235528820847     -2.571275556429
C     -0.048678365432     -1.251790852929     -0.593259803022
H     -0.665281894648     -1.940177496150     -0.052250381499
H     -0.361322526663      0.053219258736      1.814709274969
