14
OptimizedStructure
C      0.324006323528     -1.753905138347     -1.719394858502
H      0.897718034467     -1.941351904545     -2.610743359472
H     -0.528354538925     -2.393464776437     -1.558037229374
O     -0.625646814084      2.611717086422      2.144641476017
C     -0.041174271312      1.782149116377      1.508430435655
H      1.030332568078      1.565840410515      1.700028934144
C     -0.630497112368      0.960802787143      0.400486030328
H     -1.718164266527      0.999645698131      0.467645805766
H     -0.345894267579      1.459075761202     -0.531941444092
C      0.645726699629     -0.800218379627     -0.866828392608
H      1.507512825194     -0.170893522969     -1.050598909040
C     -0.113458862728     -0.490762945228      0.385815745956
H     -0.949974956115     -1.182341614055      0.486523093491
H      0.547868638741     -0.646292578581      1.243972671730
