14
OptimizedStructure
C      0.614267716999     -0.704878263400     -1.824458690555
H      1.487211010734     -0.668420365828     -2.453111802442
H     -0.337610942158     -0.648627105092     -2.326616678631
O     -0.092604837981      2.593212955471      0.095029582647
C      0.191571216347      1.576700332857      0.661008986607
H      1.238722917024      1.359936124934      0.947331563705
C     -0.788146383847      0.513838603578      1.072409360080
H     -0.722615552956      0.419957714190      2.158652025145
H     -1.792138924241      0.851432283360      0.814054173585
C      0.700317496653     -0.807482112946     -0.511884534680
H      1.669432398666     -0.867733583592     -0.034294531916
C     -0.488824356660     -0.853926631405      0.403072841518
H     -1.363303272716     -1.155949503724     -0.174040468655
H     -0.316278485864     -1.608060448403      1.172848173593
