14
OptimizedStructure
C     -0.453635799272      0.034229393790     -1.257292865742
H      0.224929696602      0.738194760728     -1.760527530505
H     -1.246759835592     -0.235319069366     -1.966958973694
O     -1.112056558660      0.676010348619     -0.179333199152
C     -0.342953328240      1.587265078290      0.505693163946
H     -0.475377470154      2.613420919105      0.166652786861
C      0.462558544730      1.293818166590      1.508769628576
H      0.605075625231      0.282682170528      1.846610880216
H      1.003507436986      2.067352216804      2.023283358993
C      0.300692695724     -1.210264403199     -0.875144275213
H      1.055882943804     -1.512181225012     -1.588405142842
C      0.063429959846     -1.914450395157      0.214516606799
H     -0.701067332468     -1.613237653843      0.911467780459
H      0.615773421462     -2.807520307876      0.450667781297
