14
OptimizedStructure
C     -0.380136736829     -0.406497843009     -1.054644258145
H     -1.682010871001      1.718310384514     -0.332866399733
H     -2.001950220906      0.408108603420     -2.427192526659
O      0.802669885932      0.091809101023     -0.805209166083
C      1.247503638661     -0.242093304348      0.465267169074
H     -2.596437230431      0.754558276160     -2.821399363638
C      2.439121466984      0.141590428434      0.919435339643
H      3.093555390548      0.743116341970      0.313198055581
H     -1.641473919539      2.202476478053      0.279584118677
C     -0.791084859680     -1.132657867224      0.166584423026
H     -1.728328022770     -1.646223732201      0.263241175051
C      0.199683041818     -1.040334336249      1.072346413628
H      0.261623821886     -1.449753627523      2.061756049486
H      2.777264615328     -0.142408903020      1.899898970093
