14
OptimizedStructure
C      1.129079085833     -1.426517913262     -1.435170398398
H      2.014032037716     -2.015775881598     -1.603786646695
H      0.684155388822     -0.975794471237     -2.307430184993
O     -1.173189324227      2.929783527813      1.035059866865
C     -0.623291390642      2.030307949075      0.466455372421
H     -0.278928227232      2.140545655833     -0.582093320953
C     -0.318019277713      0.685281331289      1.054500845133
H      0.750070471952      0.693017628116      1.293442860397
H     -0.867109044344      0.570241719678      1.989675624602
C      0.610717894440     -1.269117715627     -0.232347841041
H      1.075784451153     -1.732503784619      0.628546609505
C     -0.613142927692     -0.460542038880      0.064800918533
H     -1.014832843357     -0.055054871521     -0.866390738517
H     -1.375326294710     -1.113871135060      0.494737033141
