14
OptimizedStructure
C     -0.232975808745     -0.022743455319     -1.693193613059
H      0.732034216753      0.075572513904     -2.213487937363
H     -1.033306800189      0.069364595784     -2.439381632094
O     -0.379528364171      1.006352554759     -0.730272435095
C     -0.405070462534      0.451560646522      0.583884482137
H     -1.325666040659      0.800921206353      1.073456152077
C      0.820066378833      0.900093411650      1.406609301486
H      1.461338597286      1.505401439817      0.772008863667
H      0.523953289237      1.495294645576      2.265000017682
C     -0.318403428103     -1.303116799144     -0.922796926025
H     -0.284681376977     -2.261808910289     -1.405140443764
C     -0.433109076032     -1.034451454302      0.364716805054
H     -0.513564036102     -1.723526791452      1.184150964881
H      1.388912911405      0.041086396141      1.754446400417
