14
OptimizedStructure
C     -0.094895558522     -0.718114018140     -1.752816515982
H     -0.525020030613     -0.474993013941     -2.706516597271
H     -1.994277755287      2.280932507932     -0.763226065304
O     -0.346905926502      0.175548895519     -0.754641147015
C      0.331189942415     -0.188138628329      0.315480473823
H     -2.455794272051      2.840095872329     -0.481231920658
C      0.286268406969      0.643506277964      1.545695902290
H     -0.347765422900      1.511067570619      1.380395689397
H     -0.107807299288      0.068638849436      2.383969198149
C      0.799907792161     -1.721631284025     -1.435682099322
H      0.306852845605     -2.265389780019     -0.247504088620
C      1.032392341987     -1.380100523553      0.039213263338
H      1.827915365508     -1.751363574449      0.664864122227
H      1.287939570518      0.979940848658      1.811999784948
