14
OptimizedStructure
C      1.631471179801     -1.485978215463     -0.412269586980
H      2.307250658643     -2.313797081760     -0.283043340947
H      2.041151732271     -0.617545270561     -0.901382445132
O     -2.252027149659      1.873595251976     -0.196649531623
C     -1.139199042759      2.000265380045      0.228154884503
H     -0.776430679235      2.982834345085      0.595797619605
C     -0.106990648007      0.917637983727      0.328268441714
H      0.760388791459      1.235936617400     -0.255091860056
H      0.219190565239      0.857713140139      1.370611577263
C      0.377875801256     -1.542208307858     -0.001833010805
H      0.015276780978     -2.444402133562      0.472412185442
C     -0.628414812246     -0.437614430185     -0.151659991553
H     -0.917647580331     -0.345891234223     -1.202446191237
H     -1.531895597413     -0.680546044760      0.409131249805
