14
OptimizedStructure
C      1.067595266155     -1.941626555485     -1.092211150258
H      1.750228667447     -2.767319512925     -0.986778660052
H      0.877794477194     -1.606263375689     -2.098884064508
O     -2.049046577208      2.005390510032      1.110468759559
C     -0.959923351318      2.089641807933      0.617438725168
H     -0.648325903834      3.013315473692      0.090050524897
C      0.068747354960      0.992959295155      0.626378406526
H      1.003919971522      1.332318817224      0.182049358163
H      0.250638988769      0.699620943295      1.663255849923
C      0.485865465560     -1.376457290211     -0.051515368643
H      0.693590858670     -1.730237912656      0.950155928598
C     -0.470583646853     -0.231382120573     -0.137252998954
H     -0.643089738426      0.035606960549     -1.181677109906
H     -1.427411832640     -0.515567040340      0.308521799488
