14
OptimizedStructure
C     -0.716954407847      0.205460303685     -1.268496879581
H      0.056616394269     -0.595155969370     -1.940027908374
H     -2.861630220885      0.769847032962     -1.382899823667
O      0.024576869300      0.943943574920     -0.406204287794
C      0.673592554594      0.172437547379      0.490699354678
H     -3.631291750028      0.944159009244     -1.309588901436
C      1.482031185332      0.845271704557      1.539447373045
H      2.303316257921      1.398342807445      1.084359051362
H      0.863077286871      1.556721580119      2.083839804441
C     -0.414361050323     -1.178274540938     -0.904314247749
H     -0.944461868312     -2.051510375230     -1.243381136834
C      0.449261166920     -1.141602838379      0.240506086536
H      0.831754932016     -1.980894013749      0.784632486392
H      1.884472650174      0.111254177356      2.231429028982
