14
OptimizedStructure
C     -0.476801243371     -0.361622122774     -0.052517494505
H     -0.788183507953      0.537933040905     -0.592802105380
H     -1.373933495678     -0.922404111900      0.235606805597
O      0.228987598364     -0.024318220842      1.132275759690
C      0.389061989849      1.264792203236      1.501324940236
H      0.982398200627      1.287268858767      2.407325742149
C     -0.050911977194      2.385745986043      0.951421252961
H     -0.645549817563      2.432200366050      0.056273114054
H      0.187108189819      3.327373508106      1.407539089478
C      0.398811819538     -1.190858660451     -0.943974636866
H      1.390297976309     -0.787876291345     -1.099605085602
C      0.027930605560     -2.325594363541     -1.504597678664
H     -0.954575611275     -2.740129652822     -1.348847433919
H      0.685359272969     -2.882510539431     -2.149422269230
