14
OptimizedStructure
C      0.723134454018     -0.117501117084     -1.251048064042
H      1.064214855682     -0.109754255641     -2.275075086551
H     -2.900070707143      0.240497642306     -0.402121117115
O      0.386717338312      1.092736845315     -0.717314897669
C      0.078877426008      0.701710330766      0.586915422920
H     -3.589821627049      0.515456428478     -0.640351064150
C      1.296328962318      0.746519296786      1.276713623469
H      1.924632773721      1.613817548636      1.142292634253
H      1.367008268845      0.279133427878      2.247349342934
C     -0.144975654301     -1.101964548623     -0.683818424692
H     -0.288140114028     -2.095058931886     -1.060748910917
C     -0.581619422729     -0.577765418437      0.497368367008
H     -1.158608216629     -1.040127795578      1.272200983582
H      1.822321662975     -0.147699452915      0.007637190970
