14
OptimizedStructure
C      0.312487795325     -0.612198034588     -1.841069311018
H      0.970997145541     -0.704465758110     -2.687213422240
H     -0.668844167394     -0.220120520096     -2.048788550382
O      0.129786167217      2.674594165410      0.310294720226
C      0.202996945048      1.605360759176      0.844854713380
H      1.073525106899      1.343161681699      1.480349001197
C     -0.823225170720      0.514518027095      0.758195177938
H     -1.395119455652      0.537116467537      1.691065976326
H     -1.507831906208      0.726104980704     -0.063032346183
C      0.693630193771     -0.958741579081     -0.626103850266
H      1.688566378498     -1.354672355033     -0.471995852165
C     -0.166093989532     -0.861515916288      0.605342019584
H     -0.951672956554     -1.620945944368      0.559177118165
H      0.440797913762     -1.068195974056      1.488924605438
