14
OptimizedStructure
C      1.657011943224     -1.463397584768     -0.309169664584
H      2.276208308470     -2.338550411794     -0.215580624153
H      2.177479375405     -0.537157331674     -0.488757375291
O     -1.562871957058      2.672390626383      1.199356809273
C     -1.102324928718      1.998422747017      0.322462729623
H     -1.342522540048      2.204110591036     -0.741355327132
C     -0.172452516692      0.838220703767      0.508371830227
H      0.819543110778      1.173857502338      0.194953002361
H     -0.124657532490      0.567798679140      1.564317335081
C      0.342503913220     -1.531521516144     -0.212540154538
H     -0.128740226508     -2.489591605954     -0.039675344110
C     -0.596416517585     -0.364150176749     -0.343284260133
H     -0.642731076938     -0.057992551720     -1.393364694537
H     -1.600029355060     -0.672439670877     -0.045734262086
