14
OptimizedStructure
C      0.557640170813     -1.957161767286     -1.375095239396
H      1.286399319233     -2.710371064644     -1.621384611732
H     -0.171554683670     -1.731567755351     -2.135863483001
O     -1.606998702935      2.467485803660      0.075368916691
C     -0.742867255647      2.097298024515      0.818352215731
H     -0.653633568842      2.524787420400      1.837468900140
C      0.272735369556      1.037520070421      0.490931439160
H      0.814019673732      1.345635341618     -0.407037480084
H      0.981673591770      0.915289464496      1.309492417851
C      0.548285473562     -1.347872851170     -0.205027029939
H      1.291594561912     -1.589272178390      0.544269973055
C     -0.437943382183     -0.295569768755      0.189770613250
H     -1.164694564393     -0.137746116078     -0.607996621093
H     -0.974656002908     -0.618454623436      1.086749989366
