14
OptimizedStructure
C      0.025632805465     -0.117070247656     -1.571919460119
H     -0.084158725885      0.195402354763     -2.591466358076
H     -2.677638986052      0.437929346329     -1.155906162953
O      0.679548615347      0.714175493318     -0.740229262651
C      0.703409406241      0.131328623661      0.477206685304
H     -3.356895243172      0.808882720133     -1.064224661020
C      1.374420260888      0.853399843046      1.592344063215
H      1.758494382686      1.801767324468      1.226417498154
H      0.673237145659      1.043438686477      2.403503873597
C     -0.374896841898     -1.235010355144     -0.911092118881
H     -0.914804435898     -2.066630249187     -1.316104042818
C      0.066148883740     -1.073435428337      0.426031432527
H     -0.073121930851     -1.759390205527      1.236388001606
H      2.200624663730      0.265212093657      1.989050512115
