14
OptimizedStructure
C      0.703706861270     -1.506866607857     -1.604123593114
H      1.510926026599     -2.108232169266     -1.986751166093
H      0.037902636916     -1.078762086961     -2.335209203040
O     -1.246742411932      2.200257379277     -0.449289265400
C     -0.492188527233      2.054561823629      0.468758921275
H     -0.068050591805      2.929632578956      1.002781865437
C     -0.017159829811      0.745138507975      1.029711289457
H      1.076185517067      0.762857951365      0.997185966644
H     -0.295586708525      0.730355814314      2.086575904258
C      0.531140166345     -1.303993853211     -0.312229853237
H      1.213577249125     -1.741909483538      0.406369634094
C     -0.568076373650     -0.473570380783      0.272523333582
H     -1.223187640532     -0.117606663722     -0.525168566492
H     -1.162446373833     -1.091862810178      0.948864732630
