14
OptimizedStructure
C      0.573758165242     -0.872837761066     -1.779501302177
H      0.740041488716     -1.476185250303     -2.654896425721
H      0.651739759858      0.192891443101     -1.922498524406
O     -0.612614413524      2.754038212966      1.591771270068
C     -0.093686227742      1.853210144206      0.996306221268
H      0.985208633368      1.886411695602      0.737662456106
C     -0.785600723735      0.613480754095      0.516149285053
H     -1.739731744438      0.514550278755      1.035342383553
H     -1.008489803330      0.779814360369     -0.541655541841
C      0.297953175060     -1.413657628173     -0.607489441650
H      0.252542055924     -2.490488136861     -0.515547583170
C      0.073403190143     -0.652521993703      0.669770108035
H     -0.388900929063     -1.313620438388      1.403020775291
H      1.054377373522     -0.375085680599      1.071566319591
