14
OptimizedStructure
C     -0.262810051927     -0.766383118564     -1.552260328514
H     -0.845232806287     -0.684588934588     -2.448239709784
H     -2.122472459487      2.109377659861     -0.676730309840
O     -0.471439682813      0.156821771136     -0.595720504416
C      0.355409794542     -0.130064467128      0.432234144707
H     -2.594579656968      2.725545046247     -0.617254231389
C      0.322821327540      0.749566547636      1.632649357255
H      1.298772931254      1.201399174931      1.803832040234
H     -0.410682905364      1.537541446334      1.483137081271
C      0.689972559273     -1.650942868835     -1.159440270017
H      1.060419039064     -2.489183816402     -1.713146997627
C      1.093923981716     -1.237115645859      0.134462564857
H      1.832240411570     -1.700177347179      0.756678385863
H      0.053657517885      0.178204552410      2.519798777399
