14
OptimizedStructure
C     -0.338090266766     -0.238557949626     -0.621231475078
H      0.077424128663      0.399886006094     -1.416446187678
H     -1.396139448688     -0.425613990905     -0.850283649901
O     -0.244252304719      0.413620442960      0.628451079266
C      0.037186328480      1.738250076112      0.637518653377
H      0.230012654181      2.190954261872     -0.332281781238
C      0.085409530766      2.444527016507      1.755179636633
H     -0.107611802143      1.990497426436      2.709436218089
H      0.321151574143      3.490750536179      1.733082978754
C      0.422679920483     -1.530554501200     -0.578059310754
H      1.399334007459     -1.459423559819     -0.119717244755
C     -0.032429869881     -2.676859023227     -1.044892681732
H     -1.008573200605     -2.759114340839     -1.494238317089
H      0.553898748627     -3.578362400545     -1.006517917895
