14
OptimizedStructure
C      0.594416549710      0.085776360824     -1.866369535031
H      1.077823779823      0.293380159071     -2.804172415398
H     -1.849652521196      1.815889058365      1.266135065094
O      0.410900441447      1.117326997564     -1.035932544176
C     -0.266365289122      0.709411115232      0.094967711786
H     -2.425931493113      2.160727749734      1.688426693725
C      0.761077558496     -0.214000789225      1.165651733828
H      1.589221775040      0.480471837421      1.050422778432
H      0.271513571163     -0.077911680022      2.122408739186
C      0.096555302232     -1.066779079227     -1.368669692673
H      0.106283544551     -2.036638058446     -1.822700728994
C     -0.446965050904     -0.711943856450     -0.086506850968
H     -1.120900836370     -1.337596087988      0.471388500879
H      1.202022668243     -1.218113726854      1.124950544310
