14
OptimizedStructure
C      0.487156021797      0.121740131317     -1.576352337938
H      0.747486434152      0.466425846954     -2.565722525343
H     -1.919872489169      1.022842321793      1.471006214930
O     -0.161012296134      1.021645149819     -0.777223649158
C     -0.261342053294      0.265817327371      0.394649664380
H     -2.569350411135      1.315496037918      1.826618251040
C      0.946771298578      0.495099162863      1.072607310642
H      1.604221210407      0.123752853332     -0.364317700924
H      1.290715772765      1.514745849275      1.162356653148
C     -0.030478505536     -1.178966115339     -1.274235556079
H      0.097984156258     -2.053147319366     -1.880837430062
C     -0.528789537109     -1.097277524638     -0.009469991947
H     -0.914741515810     -1.872154142749      0.620449073450
H      1.211251914228     -0.146019578552      1.900472023860
