14
OptimizedStructure
C      1.538758454756     -0.763109020757     -0.847301887107
H      2.225246790474     -1.294644999647     -1.483960008770
H      1.815960276310      0.246576781553     -0.601555023474
O     -0.223957345822      1.710906039977     -1.304922399425
C     -0.724023709851      1.697855627203     -0.216838222874
H     -1.500009334538      2.445249536511      0.051313408742
C     -0.411298216413      0.724745892789      0.888361681192
H      0.633801767615      0.850602461379      1.179741626907
H     -1.039323003761      0.943830262350      1.752300765812
C      0.418377404570     -1.324372610889     -0.437433897384
H      0.189109728022     -2.339466678885     -0.740070304233
C     -0.631046428166     -0.732475213334      0.454382403919
H     -1.599363838547     -0.813899976526     -0.049797747870
H     -0.692232544649     -1.351798101723      1.355779604565
