14
OptimizedStructure
C      0.989382202533     -0.389931184283     -1.536511234916
H      1.226869212097     -0.683906456108     -2.544215512664
H      1.282786607300      0.607761216990     -1.252856700068
O     -0.710899970422      2.535140139421     -0.222232675412
C     -0.272521780881      1.659294078452      0.468132161912
H      0.703325794292      1.773301467429      0.985318997173
C     -0.954557636784      0.358616890879      0.770030691729
H     -1.344197162385      0.451242694872      1.789045941524
H     -1.797303906561      0.220253565184      0.091078503394
C      0.367714785789     -1.200921755027     -0.701928558242
H      0.082770205221     -2.192255147092     -1.027217385710
C     -0.000342597778     -0.841367379978      0.711497146070
H     -0.477571969846     -1.695896682766      1.192402180787
H      0.904546217424     -0.601331447973      1.277456444424
