14
OptimizedStructure
C      0.939098550193     -0.885135849974     -1.931902038517
H      0.769268996428     -1.363129653712     -2.881316957262
H      1.769137141075     -0.199134608309     -1.885568200027
O     -1.197977743487      2.724966871215      0.870940141868
C     -0.533766815357      1.772734481169      1.165510118772
H      0.415324290419      1.891031248008      1.728001989987
C     -0.873498252023      0.345746645124      0.852470423851
H     -1.339726018896     -0.062936350680      1.753243547009
H     -1.623890194076      0.331150150869      0.059720059820
C      0.178906457686     -1.125905565645     -0.881141826522
H     -0.650796771303     -1.817360455536     -0.952732318960
C      0.363298487279     -0.488720552218      0.460840522038
H      0.534500533045     -1.271294728015      1.203711923949
H      1.250121339016      0.147988367703      0.438222613993
