14
OptimizedStructure
C     -0.034610742041     -1.661505418696     -1.857931839093
H      0.573638712695     -1.993976182305     -2.681674807620
H     -1.066195064623     -1.973961476350     -1.871572850929
O      0.761249748025      0.860084271523      2.580912670321
C      0.341435554015      1.560564324547      1.704987815221
H      0.390012001489      2.665714139260      1.784855430789
C     -0.286725156562      1.093646959886      0.423463604146
H     -1.285522693125      1.533920202143      0.374867345386
H      0.284005913794      1.538462809180     -0.396872234474
C      0.452477318232     -0.921716873257     -0.880079899296
H      1.493420949280     -0.623668797371     -0.886915959392
C     -0.338947172879     -0.436213388929      0.291536779654
H     -1.370443824771     -0.779144172380      0.208154643109
H      0.086204456469     -0.862206397250      1.206269302178
