14
OptimizedStructure
C      0.955647128657     -2.089684362750     -1.186135004400
H      1.468809433473     -3.019995771098     -1.014272948503
H      0.707426537469     -1.862768566904     -2.209993135472
O     -1.380333049682      2.541641916527     -0.296803227907
C     -1.007735822838      2.083759227492      0.745454293579
H     -1.174490213336      2.625642482168      1.699741167735
C     -0.294450907586      0.776927831351      0.926496128529
H      0.657697828252      0.985700759096      1.423739111814
H     -0.886980433136      0.169416550812      1.617338228465
C      0.645171023758     -1.268464313656     -0.200629320644
H      0.907864181700     -1.524053502579      0.817806607167
C     -0.068728830542      0.037838026393     -0.388794298592
H      0.504843229729      0.678817022571     -1.063455341045
H     -1.034740105919     -0.134777299423     -0.870492260726
