14
OptimizedStructure
C      0.071168179300      0.001282976350     -1.099311575515
H      1.044208910449      0.477676795007     -1.297030160477
H     -0.630361826513      0.355371361518     -1.873059659077
O     -0.415771973776      0.370037038024      0.169297534934
C      0.081587223115      1.497670943085      0.729783339472
H      0.905417627802      1.970296332012      0.200345257688
C     -0.390141050587      1.993876537360      1.862016024452
H     -1.205643131649      1.523424925645      2.379485729266
H      0.036203332186      2.878650262734      2.293253401217
C      0.221178188297     -1.486918825491     -1.224096821446
H      0.552638496096     -1.809369621419     -2.202153248079
C     -0.020121406266     -2.348317248781     -0.255668983423
H     -0.352940301145     -2.015493054322      0.712197358015
H      0.102577732691     -3.408188421722     -0.395058197024
