14
OptimizedStructure
C     -0.241104377852      0.537336131697     -1.684507699531
H     -0.629957482778      1.085100969964     -2.519579760089
H     -3.123767791328     -1.096099646162      0.431511849241
O      0.148713403695      1.248094264640     -0.610318875197
C      0.597220460421      0.369742842653      0.313048133172
H     -2.425320099207     -1.053256820349      0.090216020547
C      1.089929030027      0.896742674736      1.613101364755
H      0.296841010747      1.436215090676      2.129787158993
H      1.426262059471      0.074695562589      2.237508117340
C     -0.052003176919     -0.790840705341     -1.473211154211
H     -0.271792451294     -1.590973467235     -2.150244420892
C      0.495637023435     -0.901095304327     -0.169227978463
H      0.772186578176     -1.803266701032      0.337299521050
H      1.917155813407      1.587605107491      1.454617723287
