14
OptimizedStructure
C      1.052753047819     -0.053966326462     -1.275079468857
H      1.856573123505      0.120373973088     -1.974302108075
H      0.189427713849      0.346507069135      2.596156693712
O      1.137868748532      0.609989375953     -0.083242215229
C     -0.065890987654      0.202406613535      0.499396546078
H      0.338396667977      0.383720980711      3.377406388179
C     -1.019737064889      1.118637787817      0.027768616340
H     -0.774635566993      2.169518702695      0.067851504554
H     -0.375873738766      0.755739822685     -1.417442843325
C      0.454439924574     -1.329825266322     -1.019615079559
H      0.463887156207     -2.164341216584     -1.692039920441
C     -0.260304664976     -1.182796292848      0.130228994629
H     -0.928631822394     -1.869497970271      0.607691409404
H     -2.068272536790      0.893532746867      0.155221482589
