14
OptimizedStructure
C     -1.142070457589     -0.245381295156     -0.531431946041
H     -1.537637893665      0.544520674077     -1.184250371753
H     -1.951786251078     -0.936508886720     -0.280195342730
O     -0.743034423233      0.304737381447      0.711387172643
C      0.127407467118      1.345739617671      0.649571239167
H      0.300690908648      1.761740361555     -0.338432786747
C      0.711078954099      1.844164039652      1.726494601256
H      0.534144035653      1.424520590281      2.699603869951
H      1.370979959033      2.686950941637      1.654229475622
C     -0.018128759442     -0.981985320109     -1.218284562992
H      0.374425261833     -0.532707460553     -2.120231015624
C      0.507823233594     -2.090275045913     -0.732125357563
H      0.131887128755     -2.537356122070      0.173305919613
H      1.334220836275     -2.588159475797     -1.209640894800
