14
OptimizedStructure
C      0.369689386430     -0.996427184297     -1.651268645055
H      1.044153550356     -1.407016965596     -2.382600398046
H     -0.442035141818     -0.406994026463     -2.045266152045
O      1.535106414686      1.410459913819      0.824857408944
C      0.399978284054      1.706887527137      0.587574165210
H      0.114680246289      2.760912344047      0.385741813553
C     -0.767374538177      0.764588749135      0.539758192651
H     -1.465781738607      1.072060935349      1.324143248210
H     -1.280650130321      0.907915111511     -0.412941710319
C      0.539586161102     -1.210096793659     -0.360000128270
H      1.370990691909     -1.816833667627     -0.029378482600
C     -0.349357120243     -0.692693912127      0.736438316410
H     -1.246561604488     -1.316510101860      0.794878534441
H      0.177575538829     -0.776251929369      1.688063836916
