14
OptimizedStructure
C      0.908256280501     -1.971532515013     -0.172002622502
H      1.047984342686     -2.851042356132      0.431835041994
H      1.702710883147     -1.736279859124     -0.862523685974
O      0.076000588513      0.391382409578      2.039218164581
C     -0.044351008853      1.333071311782      1.312354601245
H      0.043636452414      2.368130374151      1.711291643864
C     -0.318648693452      1.351185910215     -0.162710069044
H     -1.243259410926      1.923226049017     -0.285517865816
H      0.472901737835      1.964884819682     -0.602322307258
C     -0.168582016904     -1.216531211260     -0.065984636859
H     -0.949178691491     -1.473711135998      0.634737546054
C     -0.415304909450     -0.000349766204     -0.907334226896
H      0.302649529466      0.004180371484     -1.729882889725
H     -1.414815083487     -0.086614402178     -1.341158693664
