14
OptimizedStructure
C     -0.681831448399     -0.481024759912     -0.153606986245
H     -0.783019846594      0.057847447185     -1.104273433911
H     -1.690834153538     -0.764330306535      0.189591633577
O     -0.090870699275      0.339679056511      0.835506498466
C     -0.049370328821      1.673318943031      0.607784216383
H     -0.400449267162      2.001542230523     -0.367274804349
C      0.400360457503      2.531980747462      1.508417752812
H      0.744707249880      2.201115528609      2.470687109579
H      0.435702313891      3.582496786527      1.294584225112
C      0.140890066677     -1.721370819873     -0.337142806460
H      0.508117036976     -2.149280428302      0.584449360698
C      0.413794562262     -2.265621945887     -1.506822646016
H      0.056315745881     -1.839925859989     -2.430521665944
H      0.996488310720     -3.166426619349     -1.591378453701
