14
OptimizedStructure
C      0.274525279233     -0.010396209519     -1.328828992540
H      0.060674924157      0.363028458489     -2.318616816945
H     -2.310662681808      1.339696607899      0.018449698998
O      1.448410487145      0.400196045641     -0.767400091200
C      1.339052025666     -0.201930861297      0.486809408463
H     -3.050670212439      1.603380092004      0.044949471557
C      0.664379394689      0.729258708328      1.283672161059
H      0.978199743743      1.761051945471      1.238985547564
H     -0.395748636253      0.733685146230      0.021868845366
C      0.015255930587     -1.341501591766     -0.878423943636
H     -0.700396172703     -2.013328098055     -1.308789773055
C      0.711289899550     -1.484126797605      0.285847568088
H      0.702055058951     -2.293668085121      0.986091030431
H      0.263634959481      0.414654639300      2.235385885851
