14
OptimizedStructure
C     -0.804545904531      0.166697330169     -1.220750936404
H      0.063790210638     -0.429221587216     -1.983132267331
H     -3.018213290354      0.342334787935     -1.211295088285
O     -0.163042244488      0.960480177896     -0.327914771181
C      0.656195821877      0.253996714271      0.478688585435
H     -3.801920622038      0.369170057185     -1.096315638198
C      1.384403805482      0.981575258802      1.549433071383
H      1.944383478815      0.282676631276      2.163877991347
H      2.071161149583      1.705871142828      1.112098441408
C     -0.244257135096     -1.163061086077     -0.982564554148
H     -0.627925739388     -2.089837345396     -1.372946707971
C      0.655466169176     -1.056644509738      0.129629292119
H      1.207050114764     -1.851392845680      0.588883953995
H      0.677454185561      1.527355273745      2.172308627832
