14
OptimizedStructure
C      0.314626907641      0.227010078815     -1.212571436933
H      1.017131409734      0.871193051490      0.019295054497
H      0.606333451281      0.411747900578     -2.244036864667
O     -0.798348274134      0.989564317129     -0.917399239939
C     -0.847068396636      1.388286393635      0.338989949220
H     -1.562047373074      2.171804709191      0.529982767621
C      0.249181997943      1.036244790078      1.132932890417
H      0.396219341935     -0.014739594481      1.397415401523
H      0.446977085578      1.685876102272      1.977774370074
C      0.452629294548     -1.149582278945     -0.793478032408
H      1.295441177371     -1.654779574532     -1.246460093439
C     -0.292673348543     -1.790134578053      0.111249221792
H     -1.179880875613     -1.355050618018      0.541177641120
H     -0.098522398031     -2.817440699159      0.365128371123
