14
OptimizedStructure
C      1.100705455628     -0.818981408365     -1.268663681051
H      1.952467819541     -1.305212882248     -1.711799417031
H      0.814066754840      0.124169591381     -1.704829576354
O      0.631385659491      2.565371933279     -0.043827487639
C     -0.227848032381      1.730353028253     -0.025216677068
H     -1.022092564387      1.710021289043     -0.800794252580
C     -0.391192481022      0.665877248478      1.017993008536
H      0.510862001774      0.609926107299      1.629146790861
H     -1.219789739554      0.991928656341      1.655101830723
C      0.452462725959     -1.343427003294     -0.246194820281
H      0.776132743829     -2.288516154694      0.168283666088
C     -0.734957550622     -0.704917304632      0.420780606924
H     -1.542755382959     -0.581105590612     -0.306463681712
H     -1.099447410138     -1.355487510229      1.216483690584
