14
OptimizedStructure
C     -0.350395096930     -0.013687692722     -1.661280363214
H     -0.364402465794      0.234241727618     -2.709456173231
H     -1.591898978152      0.406456821765     -0.885982695722
O      0.386102214117      0.810629647895     -0.863051481682
C      0.190085795770      0.269626052544      0.378207567155
H     -1.330004752637      0.553219813805      0.200682970810
C      0.830117417149      0.952518372622      1.544973200549
H      1.903864408691      0.766558355757      1.544534050848
H      0.666114865621      2.025470072146      1.487192567774
C     -0.291576035151     -1.328060613008     -1.103563628301
H     -0.590308248787     -2.229802526874     -1.599140930960
C      0.046355433052     -1.146642300884      0.203827200790
H      0.086306713573     -1.872577335991      0.991073870257
H      0.409638729478      0.572049605327      2.471983844926
