14
OptimizedStructure
C      1.596990333327     -1.518293813843      0.014280680229
H      2.193230013191     -2.277166174129      0.490923218331
H      2.131862233871     -0.821324655591     -0.611120568208
O     -2.131846078612      1.485029063966      0.995011766698
C     -1.071365379903      1.843778055511      0.569702170682
H     -0.701486578128      2.872968768677      0.755714583930
C     -0.115162261520      1.019851818759     -0.243592529661
H      0.032670766560      1.547997955291     -1.188937436315
H      0.846059406268      1.036696089905      0.276497466104
C      0.288864301092     -1.451487729221      0.181311337451
H     -0.208452723263     -2.179338127594      0.807389822760
C     -0.597262436606     -0.421766397826     -0.461565279521
H     -0.657811665194     -0.631856486662     -1.532091502894
H     -1.606289931083     -0.505088367242     -0.053523729584
