14
OptimizedStructure
C     -0.212710367126      0.102704048024     -1.598128752359
H     -0.800157335196      0.527498295410     -2.393027567537
H     -2.699729036048      1.429631055843      0.632525723901
O      0.966913896625      0.675868572255     -1.341713739416
C      1.631259552845     -0.010212721834     -0.342399075419
H     -2.301505315621      1.028217323959      0.096279267392
C      0.926341021126      0.303775253069      1.225428144968
H      1.748410878600      0.080847330622      1.894148731310
H      0.859422145877      1.371488881204      1.034482178260
C     -0.448327256483     -0.962951849023     -0.801841530339
H     -1.308411511536     -1.601630585618     -0.794416060354
C      0.708867450867     -1.052089191800      0.045760739949
H      0.949557185688     -1.918254874076      0.636202564788
H     -0.019931309616      0.025108461965      1.706699374857
