14
OptimizedStructure
C      0.117130006215     -0.298347787953     -1.777570877246
H      0.047911861580      0.054044275218     -2.787400164019
H     -2.043964720055      2.002541738476     -0.352562277417
O      0.472017349373      0.596484158674     -0.837096874140
C      0.498114321922     -0.052756857798      0.347301773778
H     -2.600240053891      1.668424522991      0.075491411911
C      0.860503473824      0.714320734855      1.568448864159
H      1.837120106292      1.181435263476      1.448219008080
H      0.131104685582      1.502688695596      1.752206212278
C     -0.087682399778     -1.519912824901     -1.221687049319
H     -0.376701316447     -2.419131813763     -1.725887006782
C      0.160854716113     -1.360478394109      0.165186109171
H      0.097342462547     -2.117065989996      0.920321103229
H      0.886489506722      0.047754279234      2.425029766316
