14
OptimizedStructure
C     -0.700764316129     -1.811777275255     -1.050606278300
H     -0.765379416945     -1.049060065589     -1.815280467439
H     -1.004958738391     -2.802835547233     -1.359721494149
O      0.946090346325      2.276459941547      1.540244872961
C      0.587992667332      2.190231683030      0.400308629909
H      0.572169588588      3.066932078055     -0.282493714566
C      0.121783147715      0.912188100280     -0.246447813144
H      0.760952068551      0.726939719680     -1.115474619757
H     -0.892079199359      1.080694495334     -0.622945226585
C     -0.282798996781     -1.575070510982      0.182150461943
H     -0.241691573286     -2.387563583340      0.903679485073
C      0.165756301246     -0.256149769204      0.740284243691
H      1.189283407580     -0.361582100131      1.117986555748
H     -0.456355286445     -0.009407166192      1.608315364615
