14
OptimizedStructure
C     -1.019917718396     -1.423643918761      0.744841071506
H     -0.427942137036     -1.119367731707      1.597802737655
H     -1.884008326299     -2.032160804300      0.974672333841
O      0.308408682549      2.899648383566      0.672468260937
C      0.018479767749      1.752195595076      0.488370100105
H     -1.019709610746      1.376820674000      0.612185960243
C      1.016875174079      0.694809652652      0.087734675706
H      1.295007382203      0.155161809331      0.998399406234
H      1.916818626850      1.183660944251     -0.293003656780
C     -0.726990199239     -1.090824937362     -0.502373376129
H     -1.359474844108     -1.441271444238     -1.314065964412
C      0.455267735473     -0.276856214484     -0.957529338316
H      0.173546803801      0.287595289505     -1.852330334624
H      1.253638663119     -0.965767297527     -1.257171875967
