14
OptimizedStructure
C     -1.243776630845     -2.101819226206      0.346318867713
H     -1.935732982278     -1.934243875661     -0.469314012960
H     -1.506472833595     -2.897532675378      1.030405423021
O      1.080837292860      2.043407934685     -1.726037188008
C      0.751849790352      2.189190953220     -0.583729601093
H      0.757572789504      3.184174806454     -0.088497314023
C      0.300230164741      1.069254752991      0.316325685391
H     -0.687811330633      1.323801066107      0.711816737641
H      0.985038697083      1.029128462087      1.169488563608
C     -0.140717562674     -1.386794708963      0.494691103932
H      0.535887346295     -1.575925553366      1.324450775135
C      0.265341328095     -0.273663284564     -0.425807836768
H     -0.425897018530     -0.197157118898     -1.270290605273
H      1.263650949625     -0.471821532509     -0.829820598317
