14
OptimizedStructure
C     -0.650772025303     -1.776102748486     -1.228697529329
H      0.195674144555     -1.917173457508     -1.888978586314
H     -1.575397255726     -2.240951988778     -1.543044201640
O     -0.151687247433      2.693586643583      1.638038608599
C     -0.375547202096      1.811059109999      0.859919013733
H     -1.407477721333      1.453932118072      0.654905167510
C      0.694763005488      1.096093707620      0.076057929291
H      1.667700805557      1.525413991914      0.325742311362
H      0.499349175392      1.255801696756     -0.988181041644
C     -0.562013074848     -1.086337377805     -0.103010645737
H     -1.429988263036     -0.965276253937      0.539328684053
C      0.701623857371     -0.419667442718      0.364477924324
H      1.565009649003     -0.856029819537     -0.146530655227
H      0.828762152408     -0.574348179174      1.439973021018
