14
OptimizedStructure
C     -0.994890618287     -2.245714028222     -0.111713139171
H     -1.679755421597     -2.002029281351     -0.913949560783
H     -1.182380014671     -3.179801237443      0.400275161076
O     -0.188810859638      3.307100825458     -0.088159353161
C      0.503716876094      2.330928145723     -0.116386363907
H      1.492354394074      2.320334321236     -0.625327593250
C      0.135288748725      1.019125659834      0.525874151238
H     -0.892165329196      1.066003999155      0.893429456755
H      0.802994348824      0.876433254987      1.381383353807
C      0.014462846860     -1.457940314881      0.219578293967
H      0.685749032124     -1.723062510934      1.032241997485
C      0.311599302738     -0.150679753649     -0.457972094513
H     -0.352698026808     -0.006027215283     -1.315282647047
H      1.344534720757     -0.154671864629     -0.823991662496
