14
OptimizedStructure
C     -1.072994580203     -0.399666902507     -0.328575562692
H     -1.129737150146      0.036765347944     -1.337708390940
H     -2.037963496737     -0.871200639148     -0.102061245666
O     -0.911401167307      0.617026338828      0.644714185126
C      0.215124503726      1.380779877204      0.575216275567
H      0.892579414626      1.154362601271     -0.249172551018
C      0.460037522526      2.337626336235      1.457923276798
H     -0.218965393406      2.550174400588      2.270499121541
H      1.353477663406      2.937564027939      1.388932860802
C      0.021384336562     -1.432947547241     -0.249089543693
H      0.354733925578     -1.665724630057      0.757717098574
C      0.541535626262     -2.037529062953     -1.303847884335
H      0.221962350526     -1.814634611677     -2.314323653796
H      1.310226444588     -2.792595536426     -1.210223986267
