14
OptimizedStructure
C     -1.256509558684     -0.347808782737     -0.118275350690
H     -2.131575869739     -0.703381106070     -0.678597560135
H     -1.593481816614     -0.082060255616      0.895882964397
O     -0.803471011083      0.804267174328     -0.807288732563
C      0.083614503030      1.634673506041     -0.207708558142
H      0.283791012953      2.491923931289     -0.846988239321
C      0.656887974576      1.494914005796      0.980091832374
H      0.488697010119      0.649225902044      1.629647736287
H      1.341752756955      2.246929655017      1.340323949696
C     -0.235879544604     -1.454752160543     -0.045560199364
H     -0.519900367055     -2.273842054946      0.609183743259
C      0.899541047000     -1.479063139848     -0.722499867154
H      1.194094453063     -0.675485132243     -1.384158535768
H      1.592439410085     -2.305541542511     -0.644053182876
