14
OptimizedStructure
C     -1.575392881765     -1.450413118725      0.075889112178
H     -2.146491943335     -0.970594164587      0.860428590166
H     -2.125874779150     -2.131759081836     -0.558512772449
O      0.126352699189      2.912806680517     -0.732970402828
C      0.070501777011      1.717380041841     -0.690991408925
H     -0.775666874381      1.146373581575     -1.130404864569
C      1.132769797927      0.851381714662     -0.062341836885
H      1.787002079709      1.471432649615      0.554551538532
H      1.729415911256      0.437513354425     -0.881964603912
C     -0.282248226877     -1.226485671845     -0.094320831217
H      0.266729032654     -1.721772427229     -0.891226697630
C      0.528990084665     -0.296705061054      0.763004492519
H      1.350513624147     -0.856577192063      1.221504651661
H     -0.086600301050      0.117418694705      1.567355033356
