14
OptimizedStructure
C     -1.278715050211     -0.596752890444     -0.003066209531
H     -1.884294525283     -0.111127989057     -0.785315139565
H     -1.963534760262     -1.133344424373      0.666276292120
O     -0.631322507596      0.374156811175      0.794950727990
C      0.043024649962      1.371850675185      0.157910665663
H     -0.059192613466      1.396688288454     -0.928111759064
C      0.760083950905      2.263004500601      0.826593184102
H      0.852876456938      2.227655864803      1.902050004782
H      1.274952194960      3.057615258804      0.310512530445
C     -0.330693196899     -1.581486849589     -0.639928932987
H     -0.808954050741     -2.269011018743     -1.331950617408
C      0.966536545403     -1.646492051373     -0.393656318697
H      1.457304462591     -0.974896099068      0.297785453274
H      1.601928443699     -2.377860076376     -0.874049881123
