14
OptimizedStructure
C     -0.909394207368     -2.145366228848      0.121137603597
H     -0.057753957072     -2.812964067127      0.166987384098
H     -1.861886558776     -2.580027464005      0.393048991169
O     -0.843742436290      2.232145789811     -0.524307656732
C      0.015218041110      2.069046376052      0.294883360406
H      0.241710703201      2.831811924260      1.071132290028
C      0.897974419540      0.851243764715      0.375523444126
H      0.866324308080      0.465515550031      1.398843654218
H      1.923466851667      1.187402072925      0.191349065545
C     -0.799361964884     -0.881221740827     -0.251714115253
H     -1.668902310816     -0.232113857319     -0.289157667076
C      0.501556393720     -0.234592814100     -0.636093342879
H      0.396717289968      0.231629910028     -1.621207192767
H      1.298073427919     -0.982509215596     -0.690425818479
