14
OptimizedStructure
C     -1.519283407450     -0.997479641952      0.181491684575
H     -1.813019774310      0.041453458975      0.127909352195
H     -2.331768137170     -1.711180073345      0.159018345458
O     -0.826481368654      2.326920346522     -1.003518234638
C      0.001499835860      1.461576652949     -0.964488991438
H      0.371230531084      0.956238084366     -1.883461903412
C      0.660540115571      0.989009208248      0.305634612806
H      0.051006850522      1.281536662655      1.163911745173
H      1.609202532082      1.532425935201      0.370862430533
C     -0.261203818733     -1.395040623368      0.268117828826
H     -0.027977874460     -2.455936438955      0.319255972508
C      0.957493508607     -0.512980699259      0.306262891035
H      1.592489304426     -0.757254293403     -0.554380560660
H      1.536271702624     -0.759288578633      1.203384827038
