14
OptimizedStructure
C     -1.294475704356     -2.029763775223     -0.537543239696
H     -2.254864151435     -1.592897108077     -0.294760133399
H     -1.326591981548     -2.969132059631     -1.072986396566
O      0.435953360225      2.377723568192      1.574580886030
C      0.781518180789      2.212311419495      0.439866868725
H      1.249300878515      3.022286406047     -0.160466810065
C      0.635911853828      0.913294624450     -0.308244793972
H      1.636321485112      0.588067631967     -0.611341667126
H      0.071607024646      1.106786235240     -1.225607344135
C     -0.151795403401     -1.458403695148     -0.194260439632
H      0.798608515174     -1.918937534051     -0.452536976679
C     -0.056013834634     -0.157167226784      0.546599355045
H      0.524215176236     -0.294954235485      1.465002392233
H     -1.049695399151      0.200785749008      0.831698299238
