14
OptimizedStructure
C     -1.229753603679     -1.241491657977     -0.531533643184
H     -1.472885513633     -0.308372208300     -1.020111951330
H     -1.956231667620     -2.033247625051     -0.655457021401
O     -1.152040927321      2.354030679036     -0.485836154990
C     -0.456529239269      1.676646625006      0.216520590878
H     -0.641884517590      1.573650758306      1.308129169194
C      0.755263974281      0.928159954197     -0.275610613749
H      1.614286181145      1.570519777424     -0.054315691456
H      0.697718247646      0.813345440788     -1.360621608843
C     -0.127896624486     -1.428007962429      0.175180796059
H      0.061769132743     -2.390876157089      0.643604468621
C      0.957818472434     -0.416873675581      0.427248767485
H      1.912979209496     -0.845292284695      0.103821606747
H      1.037386875853     -0.252191663636      1.508981285967
