14
OptimizedStructure
C     -1.144117872312     -0.285760282453      0.084304360200
H     -1.099284117083      0.129739526070      1.102456727307
H     -2.105398082848     -0.803450666636     -0.033138527799
O     -1.163668451428      0.754568994889     -0.879672249637
C     -0.167300677099      1.672545926050     -0.888097578869
H     -0.345754016122      2.410063591985     -1.667778657663
C      0.892242759284      1.732253951460     -0.092963909859
H      1.098815548405      1.010778947157      0.682756520450
H      1.608903301314      2.530791899013     -0.208148522228
C     -0.022579129839     -1.264272891650     -0.154463579041
H      0.266470105924     -1.381902876401     -1.194310120830
C      0.558835872202     -1.964299614813      0.805309437188
H      1.340477913861     -2.681921620556      0.596652419358
H      0.282356845742     -1.859134884115      1.847093681423
