14
OptimizedStructure
C     -1.319646598873     -1.926525534586     -0.730929214090
H     -2.262353049146     -1.395468821869     -0.690916800606
H     -1.335885233574     -2.875820572209     -1.248975181394
O      1.825711264683      2.749015649506      0.798542906660
C      0.818944726026      2.178895736613      0.490625654795
H     -0.188029276234      2.608495211628      0.684408156618
C      0.788006763394      0.835005318391     -0.189486632741
H      1.802008125261      0.433963240296     -0.253401349749
H      0.410670072268      0.989624205119     -1.205013528896
C     -0.217063318979     -1.453243123940     -0.174511048249
H      0.717310759010     -2.004934236776     -0.231415555700
C     -0.144247913634     -0.140156516326      0.551246015521
H      0.246290060755     -0.302164022716      1.561192738760
H     -1.141716380956      0.303313466869      0.638633839072
