14
OptimizedStructure
C     -1.209521070855     -1.631870118582     -0.657143769844
H     -1.031501116286     -1.494668107212     -1.716358592153
H     -2.110808157894     -2.170138746686     -0.397130439793
O     -0.947934200830      2.580772294617      0.622764674606
C     -0.292406897877      1.812816798364     -0.020700240593
H     -0.462137933061      1.656595793197     -1.108384925169
C      0.837987794568      0.993648253409      0.549324932109
H      0.749764423824      0.964386825712      1.637878833402
H      1.763853197840      1.521315474359      0.298908562127
C     -0.376654021689     -1.177718704578      0.264166176960
H     -0.580671120076     -1.325546232278      1.321159177702
C      0.884618424876     -0.421194498898     -0.046871314156
H      1.034024238891     -0.357862060274     -1.129901910303
H      1.741386438569     -0.950536971148      0.382288835106
