14
OptimizedStructure
C     -0.944881911037     -0.147815319636     -0.695062966000
H     -0.285382092046      0.133025129792     -1.530210547436
H     -1.888285077967     -0.522687728460     -1.113769844270
O     -1.304897079341      0.995242514399      0.063702368512
C     -0.332234085836      1.775043145369      0.594115964074
H     -0.775072797815      2.617668666762      1.120952400109
C      0.980646063659      1.604916217595      0.517724716396
H      1.447229767445      0.775033212085      0.009261824886
H      1.644832301231      2.315105494653      0.985720536225
C     -0.318760953629     -1.223512327735      0.155345131243
H     -0.664176964004     -1.250333771629      1.184246152361
C      0.559643001080     -2.101567674488     -0.299269358527
H      0.914318201543     -2.088835086140     -1.322430866804
H      0.967021626717     -2.881282472567      0.329674489232
