14
OptimizedStructure
C     -1.600625920759     -1.319668102144     -0.154264326184
H     -2.141087618022     -0.738538845393      0.581324525972
H     -2.203909571170     -1.919181485292     -0.822724782336
O     -1.034345739605      1.791547271037      0.252932331866
C      0.041952280019      1.817567511840     -0.272252126372
H      0.347550382340      2.646082388540     -0.947566271892
C      1.114588500785      0.776935924514     -0.075593164954
H      1.912122085018      1.257103394481      0.501013857237
H      1.536433677523      0.512284195116     -1.049350520230
C     -0.281008199610     -1.294213886751     -0.235074831529
H      0.244543076899     -1.872062564126     -0.991408131993
C      0.591731286896     -0.463447836811      0.665462311971
H      1.444427266042     -1.059209766270      1.003933251601
H      0.027628493643     -0.135198198740      1.543567876843
