14
OptimizedStructure
C     -0.868048579025     -1.914563914713     -1.012521999245
H     -0.055141476422     -2.316340729958     -1.604836559490
H     -1.850778435364     -2.307374580656     -1.236239736262
O     -0.693272581985      1.493268985505      1.805211717460
C     -0.107010344369      1.908052489460      0.846181315227
H     -0.129308090328      2.982205373844      0.560925467801
C      0.735066839456      1.061367709793     -0.071879377514
H      1.763816319255      1.426567544895      0.010951100064
H      0.413838887928      1.239971572523     -1.102357629176
C     -0.676222468733     -1.008430832691     -0.068429005560
H     -1.508378070124     -0.621157855126      0.511552982159
C      0.668859372743     -0.433423514497      0.275644152046
H      1.459562883808     -0.962767335645     -0.264127501578
H      0.847015743160     -0.547374912734      1.349925074068
