14
OptimizedStructure
C     -0.875310338465     -1.929686145116      0.602999772345
H     -1.524957518386     -1.210010210596      1.082453111218
H     -1.122967924044     -2.967575157266      0.780257838345
O     -0.295024728256      3.185948577918     -0.597876200682
C      0.341084608774      2.272159108046     -0.157632534381
H      1.426682022173      2.360677321969      0.066921686343
C     -0.236790523360      0.915530533134      0.151974605782
H     -1.270938431025      0.875342243699     -0.197217891988
H     -0.231327018950      0.807868471945      1.241369686907
C      0.155407309175     -1.591070072714     -0.152959739056
H      0.770291404881     -2.362647220895     -0.610106709327
C      0.609448179605     -0.195455497054     -0.480992514715
H      0.602108473965     -0.075780793088     -1.570539511673
H      1.652294483913     -0.085301159983     -0.158651599120
