14
OptimizedStructure
C      1.004588605374     -0.196445519683     -0.971309688543
H      2.095379151109     -0.287500279410     -1.053835633162
H      0.622561316948      0.163025952057     -1.940486308552
O      0.766760165182      0.762219485249      0.040131579819
C     -0.487385200137      1.285581773598      0.135899548687
H     -1.185693778472      0.993569600791     -0.649973571307
C     -0.822498587038      2.112067812298      1.115734648370
H     -0.121510349065      2.393749567355      1.887570802715
H     -1.814190167830      2.532179034274      1.169492395179
C      0.412947710059     -1.550050280247     -0.668403786331
H      0.505592760815     -2.263512966541     -1.482469936969
C     -0.159652457277     -1.883760000685      0.475471384533
H     -0.253488248763     -1.188360158906      1.298635650366
H     -0.563410920904     -2.872764020150      0.643542915194
