14
OptimizedStructure
C      0.632032431134     -0.173698277041     -0.994418495438
H      1.587436129186     -0.272856994530     -1.525643399034
H     -0.169685726952     -0.067875314795     -1.741470898255
O      0.750416272729      1.007343786436     -0.220992683602
C     -0.324966291528      1.377790123704      0.529711764270
H     -1.203512407661      0.736112758165      0.450402080197
C     -0.294480453917      2.453772652773      1.301757748255
H      0.582993412927      3.079577922231      1.372017538980
H     -1.154036411651      2.738050062830      1.887636623733
C      0.408446129636     -1.389801257900     -0.132566061102
H      0.949019576459     -1.385334332272      0.809080861738
C     -0.365283381117     -2.405072361100     -0.477775311346
H     -0.912978962375     -2.423439223416     -1.411889173285
H     -0.485400316870     -3.274569545085      0.154149404889
