14
OptimizedStructure
C     -0.629860012712     -2.365574767060      0.229918981419
H     -0.229945236376     -2.660133902933     -0.732010567306
H     -0.884013787388     -3.174018286705      0.901951720448
O      2.073910329356      2.414105352897     -0.922713085809
C      0.972724549625      2.104872805545     -0.569060516969
H      0.073701741462      2.699327472817     -0.842774858384
C      0.669578895458      0.898160110279      0.280062797974
H      0.359030776604      1.262281321165      1.264473195148
H      1.574441015241      0.298917497992      0.402900974889
C     -0.806495594288     -1.098090705204      0.563714895837
H     -1.205784689182     -0.828078619420      1.537880677743
C     -0.464301474378      0.057671686185     -0.332617194020
H     -1.347303617706      0.693430710533     -0.463229301274
H     -0.155682895718     -0.302870676092     -1.318497719694
