14
OptimizedStructure
C     -0.742815643902     -2.102337458014     -0.340809758268
H     -1.759808424435     -1.932494795077     -0.671300016516
H     -0.328189634042     -3.073650551370     -0.574190637415
O      1.946598530980      2.482531398924      0.096646582363
C      1.427138493538      1.443970151126     -0.196599415929
H      2.019358332142      0.528153757145     -0.408755075218
C     -0.063758468020      1.259309756220     -0.316201607639
H     -0.286574525886      0.957018151574     -1.343465193338
H     -0.559354127510      2.211076787369     -0.111774374978
C     -0.050099377586     -1.185286715384      0.314925626130
H      0.968208394529     -1.387997675498      0.635231015288
C     -0.587585468085      0.177656928723      0.651475344652
H     -0.303072215467      0.448870552959      1.672394303660
H     -1.680045866255      0.173179711302      0.592423207208
