14
OptimizedStructure
C     -1.266647199314     -1.123749689797     -0.731328441633
H     -1.355812350373     -0.152380920983     -1.200118931098
H     -2.016153899546     -1.848008745227     -1.020456219487
O     -0.892893530706      1.740492857064      1.111896845929
C     -0.221060541882      1.764302761079      0.119964823107
H     -0.352947501312      2.542613126743     -0.662413471240
C      0.897168827721      0.794405915853     -0.167280790074
H      1.818037685411      1.309431152252      0.127454977451
H      0.963228235842      0.604172955700     -1.241386030600
C     -0.321236617818     -1.422324404271      0.143823772397
H     -0.289414024889     -2.412639428722      0.591329799601
C      0.763601219863     -0.503791103884      0.633967551644
H      1.716632843179     -1.042143891078      0.613763750693
H      0.557496853823     -0.250380584728      1.680782363308
