14
OptimizedStructure
C     -1.118029406053     -1.117874852556     -1.059315253789
H     -0.849270007959     -0.350755475016     -1.773359257169
H     -1.972424473645     -1.723222853722     -1.330111539444
O     -0.095995438552      2.889298961557      0.773321661204
C     -0.242994002093      1.747981378780      0.441080004876
H     -1.241960925377      1.262664882642      0.416444429620
C      0.892129343588      0.853533871998      0.008846516824
H      1.835824848139      1.294723835948      0.338430627091
H      0.895862965363      0.846646217513     -1.085605935248
C     -0.461808991841     -1.323779000159      0.071656496456
H     -0.779329943660     -2.121050701109      0.738914034744
C      0.753305324114     -0.574480158312      0.550712052061
H      1.645063790415     -1.144036460606      0.264089157135
H      0.739626917561     -0.539649646959      1.644897005639
