14
OptimizedStructure
C     -1.331876296778     -2.006442359378      0.433015431820
H     -2.134345569617     -1.712801620345     -0.231918248513
H     -1.552004162823     -2.826663595057      1.102774581691
O      1.717123803195      2.894393698796     -0.449318040230
C      0.762679293518      2.181049183761     -0.565951105425
H      0.001342308257      2.335567100051     -1.361308134841
C      0.474123939229      1.008539621843      0.334886561109
H     -0.416041812141      1.256302954386      0.921234138557
H      1.311051169541      0.859580858931      1.020804320760
C     -0.151680799372     -1.409495829513      0.424031837363
H      0.636275570855     -1.721712703144      1.103959850430
C      0.199529962127     -0.265480834338     -0.483769122790
H     -0.614314105811     -0.076429126451     -1.191697618606
H      1.098136699818     -0.516407349541     -1.056744451326
