14
OptimizedStructure
C     -1.331602816444     -1.565058936658     -0.323651174623
H     -1.411399458738     -1.272582211109     -1.362396066812
H     -2.164152229281     -2.127889060501      0.076711865322
O     -0.833906901885      1.445431139201     -1.248525077548
C     -0.231147215225      1.802588040304     -0.276911528124
H     -0.402921086331      2.796784816104      0.189931909168
C      0.835186334643      0.991411568591      0.413785790157
H      0.664696324757      1.025464935159      1.493587046395
H      1.786031052704      1.499477757015      0.221798032388
C     -0.281092363173     -1.248389206247      0.414398493104
H     -0.225356716499     -1.536606121956      1.461288131877
C      0.888905805224     -0.455509393696     -0.100634954961
H      0.884275853257     -0.438930280927     -1.194587816727
H      1.822483416991     -0.916193045280      0.235205350384
