14
OptimizedStructure
C     -0.923531941492     -2.126274029860     -0.152660515571
H     -0.113073511611     -2.823865335539      0.017382084596
H     -1.920925471786     -2.540995200523     -0.098761911911
O     -0.777295896497      2.514352244764      1.218616756015
C     -0.106221521033      2.020446180246      0.358483681476
H     -0.111321102556      2.400336748168     -0.686873156335
C      0.825656302772      0.857398426928      0.580156170043
H      0.663328472374      0.444135766162      1.578093529094
H      1.844971603415      1.252294163236      0.529493171318
C     -0.711940501333     -0.848075392682     -0.416739077166
H     -1.543057735122     -0.166611982561     -0.577791159644
C      0.654101199767     -0.225633739361     -0.497785492943
H      0.791406356324      0.230163329868     -1.485078584109
H      1.427903746778     -0.987671178847     -0.366535494864
