14
OptimizedStructure
C     -0.313688306556     -2.020667178944      0.819737216539
H      0.747958799562     -1.866701507461      0.957760731293
H     -0.693839504090     -2.969927999310      1.172380691783
O      1.924384990474      2.237149238844     -1.373568427692
C      1.054457794792      1.957577175861     -0.599922354556
H      0.382815752872      2.727674943917     -0.161027454364
C      0.769395359660      0.556972727925     -0.123179405978
H      1.053683859834      0.515839707065      0.933177914592
H      1.391755562302     -0.147460761906     -0.679464852386
C     -1.113088639572     -1.127847923845      0.260857056085
H     -2.172963599182     -1.343125200492      0.148083117232
C     -0.719798807374      0.222857577619     -0.270571861904
H     -1.315482493502      0.985647074930      0.246031795582
H     -0.995590769222      0.272012125796     -1.330294166225
