14
OptimizedStructure
C     -1.236532697360     -1.262719311495      0.527791101676
H     -0.995756356437     -0.639205419794      1.378985044295
H     -2.018118495781     -1.991675111770      0.694084782050
O     -0.769912201186      2.109637011990      0.139858017106
C      0.127608756370      1.608832445312      0.755898565100
H      0.369923494195      1.913834786682      1.796825471727
C      1.054706245791      0.559395425060      0.196597571486
H      1.358227715535     -0.133159738795      0.985581122664
H      1.952765955139      1.098876627090     -0.123662988689
C     -0.636490709166     -1.151189848601     -0.645388301409
H     -0.929690005232     -1.798284949064     -1.468371600532
C      0.449023376962     -0.174303789003     -1.003397815308
H      0.033803783907      0.568074585247     -1.695485314393
H      1.240441137263     -0.708112712859     -1.539315655774
