14
OptimizedStructure
C     -1.140248385345     -0.476871637595     -0.431530252942
H     -2.162723019884     -0.855404358709     -0.299655862238
H     -0.950631628197     -0.394023882106     -1.513135644859
O     -1.125747558475      0.804249344422      0.173268209302
C     -0.092257424078      1.645828365399     -0.070934068705
H     -0.262598924863      2.599881474172      0.423428052305
C      0.991983379458      1.415612085855     -0.799265398751
H      1.194783865751      0.475372882290     -1.289389661645
H      1.735522522959      2.188382972390     -0.918890404276
C     -0.171016958608     -1.452719221361      0.185404379921
H     -0.067798832855     -2.381414380682     -0.368780224642
C      0.490804168024     -1.248118162350      1.311519404256
H      1.165914882895     -1.988307060375      1.718552133807
H      0.394013913216     -0.332468421351      1.879409338467
