14
OptimizedStructure
C     -0.478254752082     -0.340474816949      0.334022604864
H     -0.382750372946     -0.144752916924      1.414653526579
H     -1.472420224584      0.017158371977      0.019499390560
O      0.538480024465      0.346684600805     -0.380340303750
C      0.613598552726      1.693172451967     -0.282747310468
H      1.438982640252      2.068591965119     -0.883836081931
C     -0.167932695383      2.501468122896      0.421463975212
H     -0.994097689938      2.160929024458      1.027210628513
H      0.007143763567      3.566198305293      0.408287197898
C     -0.372305498246     -1.817034433346      0.079913494286
H     -1.123678948053     -2.406077209743      0.598405529155
C      0.536194122530     -2.383630027850     -0.695415069441
H      0.568086623311     -3.454196890276     -0.844566442490
H      1.288954454381     -1.808036547426     -1.216551138988
