14
OptimizedStructure
C     -0.966765364419     -2.081611749408     -0.359872955464
H     -0.173862933588     -2.729520901793     -0.711882272782
H     -1.973471349759     -2.452709945296     -0.495967608252
O     -0.739770397770      2.750690717832     -0.545536025462
C     -0.067740734023      2.047892234473      0.153437071815
H     -0.050383981500      2.157624914996      1.260130831065
C      0.835848374852      0.959689182641     -0.365750514975
H      1.863999637903      1.311997852967     -0.238092442675
H      0.651053705316      0.808820786486     -1.431632733340
C     -0.724205063186     -0.912243251753      0.207614248878
H     -1.538228579448     -0.277376743306      0.547314591912
C      0.655857936216     -0.353032349540      0.414450678082
H      1.411264366687     -1.072331304086      0.084802184398
H      0.816404382718     -0.157889444213      1.480984946800
