14
OptimizedStructure
C     -1.363458834089     -1.273055392684     -0.135136008168
H     -1.859914880428     -0.365420860432      0.183629576062
H     -2.007802746178     -2.041876208227     -0.538887209535
O     -1.050137357168      2.205075259399     -0.922310599931
C     -0.390706441822      1.704600730125     -0.056136451019
H     -0.641705425121      1.821852369086      1.020957255089
C      0.858404214795      0.900945902338     -0.306447988185
H      1.696316398261      1.533474889462      0.003714741468
H      0.956392791252      0.699261556057     -1.375364133978
C     -0.054429750937     -1.439019140248     -0.043128295944
H      0.405671238719     -2.363212278704     -0.380610245182
C      0.895114340535     -0.403856479644      0.507371972106
H      1.914175184495     -0.798013743681      0.491837030407
H      0.642081267687     -0.180756602847      1.550510356809
