14
OptimizedStructure
C     -0.637643275387     -1.872513226172     -1.137505662822
H      0.213412619901     -2.117016970541     -1.760676821424
H     -1.570260140879     -2.349906010658     -1.406246041245
O     -0.226101917792      2.095131801455      2.011529755613
C     -0.401610712147      1.781513358545      0.868240276143
H     -1.384469384554      1.913504791798      0.367018114951
C      0.667541182175      1.153764163821      0.009609190324
H      1.632057084558      1.593949618455      0.272402077694
H      0.463682030166      1.320928613279     -1.049424911937
C     -0.544728692065     -1.048927438845     -0.106479562777
H     -1.416217463312     -0.820030963195      0.501061109920
C      0.727942743665     -0.362772240603      0.299992669892
H      1.578373818441     -0.786848492117     -0.241704756469
H      0.898022107229     -0.500777005223      1.372184562139
