14
OptimizedStructure
C     -1.019414127752     -0.347250768309      0.228557299448
H     -0.650180363262     -0.207936967876      1.256391855936
H     -2.078192907356     -0.632952693694      0.274453844071
O     -0.990560125237      0.884739894827     -0.479879772254
C      0.219083286347      1.535828317914     -0.549646769324
H      0.829382242414      1.285848441994     -1.420029100232
C      0.593756127659      2.432137846933      0.348677614543
H     -0.023441673488      2.674216113707      1.202238645287
H      1.526592842971      2.966848692048      0.253339653204
C     -0.240440075110     -1.423071081934     -0.484096481115
H     -0.347595732732     -1.423264835047     -1.564718905149
C      0.510768766852     -2.319689288965      0.132530217629
H      1.040059575884     -3.093694714074     -0.406765543388
H      0.630182162811     -2.331758957523      1.208947441343
