14
OptimizedStructure
C     -0.985034530189     -1.979453636853      0.379500504907
H     -1.865977356342     -1.356954116718      0.292178551724
H     -1.153577327724     -2.975694539787      0.765145530980
O     -0.360521858987      3.194244244499     -0.448286545263
C      0.366574818911      2.281930912855     -0.178985065358
H      1.473167341882      2.366097056921     -0.249926627632
C     -0.114164394756      0.933054498374      0.289271921229
H     -1.202856882329      0.893688461197      0.217683298578
H      0.167189754108      0.836061256664      1.342669010386
C      0.224737810177     -1.565729922345      0.038731374840
H      1.076451490086     -2.232693793276      0.139945701382
C      0.543467456775     -0.200204172370     -0.515181143211
H      0.202277053028     -0.139770239780     -1.554735209820
H      1.628266625360     -0.054576009382     -0.518011302741
