14
OptimizedStructure
C     -1.249572961613     -0.314780840916     -0.438696169178
H     -1.419887932586     -0.573819176583     -1.494128525130
H     -2.172178867015     -0.541226778600      0.118582300732
O     -1.085890179527      1.101910589800     -0.412232119344
C     -0.129911560270      1.822599268095      0.210077094489
H     -0.345394514097      2.881399964952      0.060740029458
C      0.940037805835      1.457238517328      0.902786692862
H      1.235091759548      0.438707726533      1.091351423480
H      1.583634333843      2.221046945294      1.313021637117
C     -0.139431374038     -1.172103368368      0.110585673278
H     -0.118825788368     -1.293200597161      1.189342405229
C      0.717269143011     -1.822401950104     -0.661078762388
H      0.706153038822     -1.733891153157     -1.740094384768
H      1.478907096454     -2.471479147114     -0.250257295835
