14
OptimizedStructure
C      1.231260303590     -0.179017966683     -0.923457036440
H      1.958286842165      0.128814721087     -0.163699162619
H      1.734389031311     -0.370646435951     -1.872189836584
O      0.347024734121      0.991233464599     -1.224803911445
C     -0.649634854009      1.286841306767     -0.417902736481
H     -1.597376427133      1.487160567681     -0.923445945249
C     -0.617577563024      0.838407354105      0.907780124467
H      0.284003495482      1.073852720687      1.462660782915
H     -1.516019226395      1.005231779248      1.494170850572
C      0.308806782797     -1.231874954958     -0.479450263575
H     -0.380969591293     -1.546837872851     -1.263055173624
C     -0.277041741232     -0.975445250234      0.780807742425
H      0.389208198666     -1.017564193616      1.637814817170
H     -1.214359985046     -1.490155239880      0.984769748469
