14
OptimizedStructure
C     -1.097892194043     -1.375881700856      0.687183050386
H     -0.628936226089     -0.964425391454      1.571060623746
H     -1.931349363079     -2.039498231047      0.874111554078
O     -0.053966370894      2.741775397510     -0.032233979558
C      0.065499873954      1.706536150267      0.559602370922
H     -0.570194090143      1.454325676044      1.434601681748
C      1.055667811313      0.640256992051      0.160431234462
H      1.339125618256      0.025602754560      1.016377677068
H      1.945463984864      1.131155682787     -0.240917071639
C     -0.699446601209     -1.106665582948     -0.544992720882
H     -1.212454516315     -1.565134881015     -1.387092376451
C      0.445386465593     -0.224608204103     -0.957701383641
H      0.109129664656      0.436720861425     -1.763619284436
H      1.233965943137     -0.860159523223     -1.376811375802
