14
OptimizedStructure
C      0.340875692170     -0.346141363189     -0.835363211202
H      1.084080531857      0.123646966462     -1.495667073748
H     -0.589821952311     -0.488151472700     -1.406869491432
O      0.089849496453      0.494068369799      0.287786111580
C     -0.408408628243      1.735427755271      0.043157585634
H     -0.582941224948      1.980912555344     -1.005781671625
C     -0.664533184143      2.587115451626      1.025423367052
H     -0.487443548050      2.332260235898      2.059887380897
H     -1.061144275154      3.568021809523      0.817145369394
C      0.850818133393     -1.672398379051     -0.325268838254
H      1.916311646066     -1.849562766600     -0.433336610930
C      0.064689675555     -2.563887166010      0.253778998328
H     -0.997258539726     -2.398023584403      0.383368002212
H      0.444926177080     -3.503288411970      0.631740082094
