14
OptimizedStructure
C     -1.435293791387     -0.573415046337     -0.399870942741
H     -2.061450992701     -0.278220795133      0.445152020069
H     -2.034644687686     -1.030275038846     -1.186279012344
O     -0.999739651993      0.790312023591     -1.016176119148
C     -0.104803511209      1.450593468489     -0.311488753927
H     -0.474863700508      2.201342445927      0.397173767813
C      1.157433625178      0.887367449963     -0.127093172729
H      1.620614886592      0.386858379420     -0.968042402631
H      1.863873475116      1.427767742675      0.494200777948
C     -0.234527836484     -1.302269166818     -0.049515151928
H      0.187124858440     -1.941824993800     -0.820048387006
C      0.654792970215     -0.668593346345      0.822463601466
H      1.610444225973     -1.150127012254      1.005738922312
H      0.251040130453     -0.199516110532      1.713784852845
