14
OptimizedStructure
C     -0.910692985220     -0.336489591625     -0.020003706088
H     -1.013169621839      0.099779415698      0.982422769479
H     -1.914133070802     -0.365400383145     -0.471483588725
O     -0.071858771886      0.451960048429     -0.853128318755
C      0.439729827421      1.635666856067     -0.447600116330
H      1.093555814142      2.033832916357     -1.221897434871
C      0.233678088987      2.297133462482      0.683568157583
H     -0.406781592123      1.956148213618      1.483114552337
H      0.728424258592      3.242431214987      0.844251197987
C     -0.380066545583     -1.739520194599      0.105724200968
H     -1.014685300050     -2.397891493881      0.692419255700
C      0.746926810375     -2.168016256736     -0.436095493315
H      1.084843120192     -3.188227623162     -0.317112005131
H      1.384229967793     -1.521406584491     -1.024179470838
