14
OptimizedStructure
C     -0.984037128188     -2.249550526041     -0.349247227943
H     -2.044331911707     -2.033107003015     -0.312189275148
H     -0.717779169223     -3.238668346161     -0.696856781130
O      1.480904903291      1.938131496831      1.433349171231
C      1.181040474465      2.010098736736      0.276307272164
H      1.609664966323      2.783555235054     -0.396761399017
C      0.209143784230      1.092780493744     -0.420907828014
H      0.741401437623      0.640269627290     -1.263735823239
H     -0.576334875097      1.719039572037     -0.853666396617
C     -0.069418891776     -1.366048727897      0.015430851276
H      0.988623736556     -1.610708795720     -0.031375015591
C     -0.387381680796      0.016202558472      0.506563879966
H      0.038111927448      0.146265185754      1.508439276492
H     -1.469607573151      0.151740492915      0.584649295569
