14
OptimizedStructure
C     -0.883996551264     -2.228366962896      0.564697115479
H     -0.464179988908     -2.835042355241     -0.227630001532
H     -1.328410775034     -2.770827994030      1.388144565841
O      1.586605956272      2.951534928349     -0.657297335393
C      0.748797118200      2.198165989848     -0.252491908786
H     -0.261941022908      2.545771974239      0.054277833100
C      0.959925321684      0.714470098623     -0.097876720580
H      1.123410525579      0.536872004554      0.969956218689
H      1.873062092641      0.426026585898     -0.622507714940
C     -0.863848989320     -0.906422779712      0.528147862778
H     -1.291398360617     -0.320326937447      1.337610427131
C     -0.252845763349     -0.108402369752     -0.588982701380
H     -1.010790400348      0.568839061726     -0.998920188531
H      0.065610837371     -0.772291244158     -1.397127451875
