14
OptimizedStructure
C     -1.180521553671     -1.304897079286     -0.748150766247
H     -1.245074763459     -0.438957690750     -1.391551082697
H     -1.895327076331     -2.090596916283     -0.952742635989
O     -1.416117652712      1.599844126813      0.077578599701
C     -0.243785322007      1.844239573356      0.112418195285
H      0.130968170819      2.852791270110      0.393163364414
C      0.846522220702      0.850911702463     -0.212590768207
H      1.822976511242      1.314306039276     -0.056958585031
H      0.758967403225      0.590938828572     -1.271768556129
C     -0.312187332748     -1.414317233746      0.242235361237
H     -0.309282435286     -2.307263596661      0.863594782795
C      0.746095243394     -0.424020430228      0.645029991657
H      1.715877458401     -0.934042091714      0.609146645002
H      0.580889128432     -0.138936501921      1.690595454209
