14
OptimizedStructure
C     -0.786762935743     -0.169757723545     -0.751138608589
H      0.083301117564     -0.110180771391     -1.423169097602
H     -1.692917262872     -0.269609783159     -1.362414803311
O     -0.945306317917      1.048497779041     -0.036132254045
C      0.130727823794      1.482619503500      0.702589380533
H      0.146355006205      1.143322764819      1.740449539376
C      1.053608678950      2.288670016779      0.203279042924
H      1.022162259350      2.621601904865     -0.824470428053
H      1.866614413427      2.656144000644      0.810875901725
C     -0.673950753461     -1.353688433331      0.174953689625
H     -1.330954990985     -1.320604197082      1.038943297020
C      0.140936323419     -2.374579382044     -0.030492619468
H      0.804111412671     -2.421794645379     -0.885506524200
H      0.182075225596     -3.220641033716      0.642233484064
