14
OptimizedStructure
C     -0.951560517361     -1.814575646145     -0.917324884691
H     -1.582536955016     -1.044114409036     -1.342297747373
H     -1.061395760989     -2.798873539380     -1.351967172248
O      0.629970343505      2.336492270796      1.602765171412
C      0.593651325360      2.197890349144      0.413466731309
H      0.766384027575      3.044010491533     -0.286186667304
C      0.313555607264      0.890008909031     -0.278189890447
H      1.153809099444      0.669934236193     -0.944149134758
H     -0.566678899582      1.031805140773     -0.912307305021
C     -0.101635290934     -1.582976726279      0.070709108273
H      0.503355262834     -2.394145243300      0.466269163649
C      0.101822833233     -0.245575103350      0.731049927694
H      0.968591860631     -0.287972173462      1.396016189553
H     -0.767332935964     -0.001908556517      1.352146509953
