14
OptimizedStructure
C     -1.479477942773     -1.686868853278     -0.463653174690
H     -2.250610928570     -1.184879285265      0.106477796223
H     -1.823139775960     -2.437877630994     -1.162306835489
O     -0.626393930960      2.288091852827      0.936129907690
C      0.288226816354      2.136271383590      0.178545291213
H      0.734728949397      2.984789808078     -0.383639937463
C      0.955402224634      0.817745351069     -0.119976311116
H      2.016203467871      0.930382669671      0.122553396475
H      0.899311863785      0.668784180055     -1.203093715756
C     -0.195510438279     -1.406700514722     -0.312965318069
H      0.559008357171     -1.924460934077     -0.900266954070
C      0.326848637036     -0.368080463766      0.638754448143
H      1.080259438228     -0.820213648833      1.290580641590
H     -0.484856737932      0.003016085645      1.272860765319
