14
OptimizedStructure
C     -1.287074517822     -2.208456791973     -0.338655610020
H     -2.120113015258     -2.058329122758      0.336340820329
H     -1.282691427699     -3.143533668803     -0.881592687121
O      1.828472413623      2.668472858154      1.137923855191
C      0.894945096428      2.193506280261      0.558101005379
H     -0.079582851674      2.722172320219      0.471914484513
C      0.923210389178      0.850782086438     -0.125949508204
H      1.850776046169      0.332953843847      0.128839938367
H      0.921341117009      1.042971544138     -1.203857041673
C     -0.330242434810     -1.308348543612     -0.494436016886
H      0.492467690153     -1.491273665473     -1.179757452654
C     -0.301517115677      0.006658617752      0.244839723150
H     -0.296070206105     -0.180165828699      1.324389245586
H     -1.213921183517      0.572590070509      0.021899244042
