14
OptimizedStructure
C     -1.248711667468     -2.000016934566     -0.672368874797
H     -2.221262508045     -1.536163952585     -0.566085279774
H     -1.234620957487     -2.950726316209     -1.187976074855
O      1.414455554373      2.304620207645      1.513401793856
C      0.753938259834      2.184936361297      0.520569548529
H      0.115337460470      3.009015514124      0.136555937836
C      0.692292790458      0.907869775353     -0.278834986304
H      1.709446927478      0.533119861217     -0.418124832686
H      0.230777019326      1.072239101986     -1.253759379000
C     -0.145941849407     -1.447774543209     -0.193934505564
H      0.818711789563     -1.932793736296     -0.317047344978
C     -0.115937252048     -0.132268704752      0.526824061749
H      0.363566935921     -0.253336627500      1.503453237027
H     -1.132052502969      0.241279993495      0.687326698960
