14
OptimizedStructure
C     -1.315431378354     -0.647416747198     -0.530856852869
H     -1.288820061168     -0.469218625153     -1.618621745850
H     -2.229459396392     -1.207862231229     -0.306386143469
O     -1.514735566521      0.664869243354      0.064496228933
C     -0.450286513463      1.416960560347      0.237032111941
H     -0.651271779750      2.413615850655      0.611658499201
C      0.910117168170      0.923568980956     -0.075217021448
H      1.660244177663      1.577773910616      0.375955398540
H      1.063260646898      0.941228014863     -1.163296053540
C     -0.093369050976     -1.365759602746     -0.072769818491
H     -0.275850625251     -2.269846339390      0.498668449694
C      1.058085213602     -0.528952578178      0.412562753204
H      2.013871468749     -0.934883362892      0.054898591911
H      1.113645696794     -0.514077074005      1.511875602243
