14
OptimizedStructure
C     -1.615966805444     -1.350318986646     -0.187923059742
H     -2.153644781853     -0.963293712296      0.668038012294
H     -2.211061042950     -1.882671210113     -0.917622002067
O     -0.533244122345      2.366448996951      0.572862963497
C      0.081474470641      1.793193438444     -0.281325161467
H     -0.135673357883      1.941166460729     -1.360807666528
C      1.180373029472      0.802805419687      0.019022408709
H      1.859569030412      1.254830167777      0.745921764943
H      1.736409406145      0.544291188917     -0.883680039138
C     -0.311316331945     -1.188887773685     -0.333328225844
H      0.204858456463     -1.583577890641     -1.205046358031
C      0.556207950301     -0.458609690199      0.652273974911
H      1.366917144723     -1.115720138547      0.982049675524
H     -0.024903045737     -0.159656270378      1.529563712938
