14
OptimizedStructure
C     -0.595732309670     -1.856509473088     -1.283093767140
H      0.321062906807     -2.162287106300     -1.771174856390
H     -1.507480079690     -2.269984582380     -1.692542457181
O     -0.310710893660      3.046446907512      1.070727869940
C     -0.333087504193      1.854186076621      0.957492488350
H     -1.113767503443      1.233103443578      1.447287521422
C      0.681544377788      1.087546566727      0.144934098195
H      1.672182980737      1.480235728696      0.390740652073
H      0.498446391629      1.330593877473     -0.906729038242
C     -0.604453063988     -1.035987069103     -0.245788389058
H     -1.541984215908     -0.748052599254      0.222519125277
C      0.637064438735     -0.432853324788      0.351455381470
H      1.524383778862     -0.876272382067     -0.110317733736
H      0.672530695993     -0.650166063627      1.424489105022
