14
OptimizedStructure
C     -1.247519173517     -0.543037493860      0.034437071126
H     -1.890847072243     -1.056212928772     -0.687034997049
H     -1.361061129592     -1.022615587344      1.015007567442
O     -1.695202575680      0.810423651099      0.143303769382
C     -0.664264124246      1.648812923069      0.067979702582
H     -0.873900109251      2.701563010140      0.175343743978
C      0.638240736573      0.981220021820     -0.139777966653
H      1.272587445057      1.053061720880      0.753051553763
H      1.202341830739      1.413875041775     -0.971092840914
C      0.233245204549     -0.504768215897     -0.411330193187
H      0.284364833054     -0.676364339356     -1.493994831893
C      1.059535852370     -1.506963364711      0.302699565282
H      1.068054568695     -1.469890777587      1.383745979370
H      1.974423713492     -1.829103661256     -0.172338123229
