14
OptimizedStructure
C     -1.026356547991     -2.087233737537     -0.538799266901
H     -0.422427754591     -2.606652376989     -1.272222449759
H     -1.977705219279     -2.543768098928     -0.302955668724
O     -0.761798390448      2.631907268181      1.077083327858
C     -0.157858723126      2.018828951159      0.244326034059
H     -0.321677559560      2.180069165895     -0.843704007780
C      0.889607097428      0.981073766141      0.557421413036
H      0.878774806871      0.765501913380      1.628357770345
H      1.859127750048      1.422077258168      0.305181643725
C     -0.631801185154     -0.963308768337      0.036540923087
H     -1.262074799642     -0.467156244651      0.768792262506
C      0.687018750182     -0.294348635905     -0.267252426621
H      0.738503844957     -0.049553849936     -1.334820121617
H      1.508667930304     -0.987436610640     -0.057949433214
