14
OptimizedStructure
C     -1.696104836633     -1.135597252981      0.197165797928
H     -1.966758111760     -0.790062573747      1.186708144394
H     -2.507708337929     -1.517344679504     -0.407219456597
O     -0.369354810862      2.564985730232     -0.723709137569
C      0.197855071185      1.516526179723     -0.836642951550
H      0.160417102641      0.924329381681     -1.775227119186
C      1.046318646186      0.907931048418      0.252222955498
H      0.945087584582      1.518532425287      1.152048433429
H      2.082627540212      0.984137303044     -0.090665393651
C     -0.451322079466     -1.096892733405     -0.249371081432
H     -0.210981904233     -1.453618836501     -1.247494906443
C      0.707729929710     -0.573576119073      0.558068325154
H      1.587661055280     -1.192266403396      0.360834950444
H      0.474533151087     -0.657083469777      1.623281439582
