14
OptimizedStructure
C     -1.142527074653     -1.574451844275     -0.343900319529
H     -0.672488873964     -1.607244143446     -1.318262163688
H     -2.109075696464     -2.054476284131     -0.274704661600
O     -0.738948958127      2.238753115092     -1.317304775103
C     -0.151479567336      1.798554516380     -0.371383711958
H     -0.322956434195      2.177214635128      0.660037568628
C      0.889572219605      0.711921765832     -0.461418495853
H      1.864724763479      1.204583108980     -0.392397785698
H      0.824620381502      0.228930500738     -1.438645808565
C     -0.584082341410     -0.988698579875      0.702711806654
H     -1.093981879767     -0.984903571809      1.661981160774
C      0.760648286406     -0.304098547637      0.683524098433
H      1.551652525021     -1.053633204857      0.573060821514
H      0.924322649905      0.207548533880      1.636702265991
