14
OptimizedStructure
C     -1.209269341323     -0.591793006067     -0.122626098469
H     -1.617284826219     -0.134317901721     -1.036581673893
H     -2.007579055274     -1.191666203424      0.336857322439
O     -0.865683224562      0.415299246489      0.821631389373
C     -0.445461476339      1.625890879980      0.323944593321
H     -1.242478507666      2.363614407639      0.202432943854
C      0.818317785110      1.908381097824      0.053114125998
H      1.609151037583      1.182798844613      0.175017784609
H      1.107152992970      2.888839136545     -0.294728362231
C     -0.052718064493     -1.495004134624     -0.470312410707
H     -0.205581282406     -2.097465938377     -1.361359918653
C      1.051976791757     -1.596304923983      0.249273045968
H      1.204418965877     -1.011208469933      1.146609695957
H      1.855038204984     -2.267063034959     -0.023272437566
