14
OptimizedStructure
C     -1.181981547027     -1.123982414239     -0.954059363894
H     -1.054316955656     -0.276476267339     -1.614279232496
H     -1.991010822439     -1.793155943834     -1.214171523474
O     -0.197562734197      2.366350339912      1.372135840453
C     -0.220267061325      1.749987730120      0.344592905705
H     -1.092863160831      1.785278160874     -0.341461975441
C      0.905556471900      0.848673973768     -0.099114073554
H      1.848139890586      1.283961550890      0.241268513388
H      0.926431589054      0.750187642442     -1.185694642565
C     -0.416515113380     -1.351816876015      0.100286856194
H     -0.596748931064     -2.230987245117      0.714353635722
C      0.747756172393     -0.527388936001      0.573348520044
H      1.665408740186     -1.103628137719      0.408126659589
H      0.657973461800     -0.377003577743      1.654667880330
