14
OptimizedStructure
C     -1.244496653362     -1.917713673493     -0.281264799636
H     -1.509439124823     -1.623211417053     -1.288833112933
H     -1.870152395323     -2.677363372904      0.167314134173
O     -0.667773549685      2.974720539568     -0.029057702339
C      0.146687890343      2.148094333437     -0.324025412166
H      0.695160597350      2.176511068933     -1.290801962782
C      0.533509104639      0.996994489766      0.567945699494
H     -0.203615768022      0.909085330644      1.369540878743
H      1.490011509259      1.266351267789      1.025502000969
C     -0.217064852339     -1.389437076532      0.362603954876
H      0.025469683276     -1.699658065753      1.375410084903
C      0.676668641010     -0.328809309025     -0.215330210660
H      0.428968035147     -0.167502184217     -1.269924541044
H      1.716066882530     -0.668061931158     -0.169079011598
