14
OptimizedStructure
C     -0.495815759134     -2.376254023865      0.219616540485
H     -0.025675099000     -2.633104293724     -0.721060412936
H     -0.728494027516     -3.206767359754      0.872356786841
O      1.507964820510      1.948247974296     -1.617350828383
C      0.906183226831      2.097529796146     -0.591828774534
H      0.521536532256      3.090976999709     -0.275842853134
C      0.582756420365      0.962936120368      0.347688573569
H      0.214350114675      1.335406671556      1.304951082538
H      1.490987994197      0.378047683863      0.513216094163
C     -0.778957655679     -1.127089141417      0.549924091794
H     -1.248528182516     -0.895183640042      1.502408757232
C     -0.472133826886      0.055678031796     -0.321822719280
H     -1.384876521443      0.637501878616     -0.488166374515
H     -0.089298036661     -0.267926697547     -1.294089963841
