14
OptimizedStructure
C      1.008512406258     -0.207785510020     -0.747902828449
H      2.059298391448     -0.424375959550     -0.524235149669
H      0.930688385828      0.127820768604     -1.792471601130
O      0.644123877251      0.845328990242      0.133267979901
C     -0.585372657327      1.408416472930     -0.023373073137
H     -1.150054241446      1.087968311429     -0.900126503929
C     -1.051529737581      2.304705327895      0.833864903681
H     -0.482973671869      2.614735424210      1.698242358513
H     -2.019697569354      2.757057496851      0.689142952510
C      0.158021640524     -1.441662511772     -0.528017384640
H     -0.628119927772     -1.621308080395     -1.255213866997
C      0.324650066071     -2.249839457809      0.505504956320
H      1.094996850543     -2.084013194393      1.247981680416
H     -0.302543812574     -3.117048078222      0.663335576608
