14
OptimizedStructure
C     -0.465544434194     -2.207534986127     -1.010279142619
H      0.452215924354     -2.379894261057     -1.558293488399
H     -1.281124679611     -2.881757165666     -1.233849992789
O     -0.624906933579      2.951316432915      1.246974037659
C      0.197874700548      2.113324196252      1.013467241942
H      1.099233712749      1.975493803684      1.649996393035
C      0.122684927815      1.167211338141     -0.156432866027
H      0.814484112315      1.550103794409     -0.912345648923
H     -0.883175403566      1.207376864988     -0.581133811420
C     -0.584346803437     -1.240079479021     -0.116401089917
H     -1.517425064905     -1.086487347123      0.418744851395
C      0.517688203855     -0.277930096599      0.225686683845
H      1.440191489589     -0.561453076535     -0.289172859917
H      0.712150248066     -0.329690018259      1.303039692136
