14
OptimizedStructure
C     -1.490642515355     -0.417410780885      0.067664902102
H     -1.635613914017     -0.064864186786      1.094919957778
H     -2.431585572885     -0.788570735648     -0.340770289603
O     -1.177230583034      0.767368993702     -0.792708652788
C      0.041933020876      1.262467317970     -0.810584483781
H      0.433012479593      1.466891409490     -1.810176023953
C      0.901751715762      1.012330720442      0.265379944768
H      0.507533449376      1.248530308765      1.247711786979
H      1.930058804869      1.339746823292      0.145949317987
C     -0.337667907565     -1.310770840581     -0.102998226548
H     -0.235013447100     -1.677038250772     -1.124927707711
C      0.848142705184     -0.822951561434      0.491232903176
H      1.779955165273     -1.219943073013      0.092214859852
H      0.865366599023     -0.795786144541      1.577091711743
