14
OptimizedStructure
C     -1.116780008391     -1.536556345941      0.492126289806
H     -0.445972189856     -1.574911143448      1.341065777980
H     -2.063351081445     -2.042209870280      0.626844582544
O     -0.793392124122      2.116798056926     -0.016869439732
C      0.135934231515      1.738015709588      0.636517211208
H      0.431927668079      2.234526549725      1.586130975592
C      1.027231768783      0.582356266190      0.258035760245
H      1.179223886157     -0.053562716491      1.133836925715
H      2.003109642623      1.009601774681      0.004343009810
C     -0.820508291538     -0.919369451977     -0.639886819247
H     -1.534628922693     -0.921300940544     -1.458484543830
C      0.470768385636     -0.200919463317     -0.936426750243
H      0.306763185609      0.497634073007     -1.762034797202
H      1.219673849642     -0.930102498119     -1.265198182647
