14
OptimizedStructure
C     -1.208958384362     -1.587353900553     -0.473283957187
H     -0.824043214288     -1.747570993902     -1.472289595781
H     -2.215809885818     -1.939221739118     -0.293974271526
O     -0.766742218031      2.397611960184     -0.950268995278
C     -0.372970595304      1.701892292944     -0.058828910750
H     -0.967740801121      1.532770029343      0.863496226219
C      0.971251875492      1.017156146584     -0.069292866637
H      1.582077223483      1.533772228591      0.677243424021
H      1.432273413599      1.174378222272     -1.046793820651
C     -0.495745725389     -0.999583666861      0.473410921068
H     -0.909768610579     -0.855181172179      1.467896243736
C      0.908445646695     -0.494862056029      0.266717063278
H      1.374650558896     -1.046265618072     -0.554647850712
H      1.493080716728     -0.687541733204      1.170616390201
