14
OptimizedStructure
C     -0.324782378389     -2.127454600721      0.633250332984
H      0.669987220403     -2.216489039480      0.216480262176
H     -0.669608795545     -2.978519671071      1.204571318450
O      2.021083040089      2.197771423992     -1.272458611918
C      1.025623325648      1.976225859447     -0.645174075452
H      0.233039414025      2.743079194612     -0.502309557161
C      0.728986529615      0.659751198143      0.024709056173
H      0.793942214006      0.823529093435      1.105065832634
H      1.490088238146     -0.069220489716     -0.260335499981
C     -1.083153674067     -1.056730896822      0.462183886660
H     -2.078267641835     -1.019718278849      0.896786568320
C     -0.683475554471      0.164367983063     -0.326640025920
H     -1.402046218657      0.968304676140     -0.138632749638
H     -0.721415718967     -0.064896452174     -1.397496737325
