14
OptimizedStructure
C     -1.035712722836     -2.210482762390      0.438002462554
H     -2.023303424882     -2.077575004220      0.014391396910
H     -0.897390473840     -3.099212313002      1.038923842359
O      1.867837811269      1.741764628988     -1.217110959638
C      1.197856169613      2.002375512411     -0.259483421854
H      1.373666471008      2.912928770777      0.352855423491
C      0.052150137838      1.162851526866      0.245216502633
H     -0.835200483613      1.802085354963      0.266338200955
H      0.273427485259      0.908836730874      1.286819176334
C     -0.055120076827     -1.347536202380      0.228590292811
H      0.927192833012     -1.506502217750      0.665962868015
C     -0.195623326870     -0.102840573121     -0.598405611154
H     -1.189849874306     -0.058262734305     -1.051403558309
H      0.540069475175     -0.128430717712     -1.410696615108
