14
OptimizedStructure
C      0.879024049922     -0.199774442067     -1.066099779641
H      1.870982468670     -0.118554156000     -1.522507062959
H      0.119183245967     -0.103081961850     -1.857779323950
O      0.774031919139      0.882807355065     -0.154628240146
C     -0.464498466799      1.336969464668      0.172707346801
H     -1.274410726085      1.034279661568     -0.494084727171
C     -0.661536156787      2.131924725143      1.214697790572
H      0.148475489304      2.428806981880      1.864435042259
H     -1.643561178382      2.516990718943      1.438910389041
C      0.738145808807     -1.536163338594     -0.365104980464
H      1.635847711023     -2.145845061361     -0.326177774887
C     -0.382761833814     -1.953694697923      0.199176532067
H     -1.293980179114     -1.369363887722      0.186446586213
H     -0.444942151851     -2.905301361750      0.710008202264
