14
OptimizedStructure
C     -1.294985009749     -0.395260598262     -0.140555053908
H     -1.943246675645     -0.501304362373      0.741803115652
H     -1.827302876367     -0.822356605678     -1.004999743857
O     -1.186962730004      1.008098011430     -0.371685205299
C     -0.074582232139      1.734384410657     -0.607640555644
H     -0.371139442281      2.767765688481     -0.791956512554
C      1.208376889525      1.400471781469     -0.633039276465
H      1.592143550233      0.410252897151     -0.453565542341
H      1.943612537866      2.163602918990     -0.840338849131
C     -0.029135004314     -1.182791528341      0.075190455281
H      0.512110256242     -1.471504837032     -0.820635332481
C      0.372060301614     -1.588015460046      1.269814434297
H      1.258941071799     -2.193373468476      1.400780431375
H     -0.159890636780     -1.329968847968      2.176827635075
