14
OptimizedStructure
C     -1.115412393511     -2.312204063100      0.241033705506
H     -1.444667210785     -2.480887504872     -0.776437983772
H     -1.351732028673     -3.094606912188      0.948965525554
O      1.977379641002      2.702231079040     -0.739489654829
C      0.911627428918      2.170996419220     -0.616103041917
H      0.020139748711      2.490124943000     -1.199222389285
C      0.643333819789      1.032585637071      0.334513466601
H      0.034182142995      1.436100076112      1.149949081182
H      1.588204730678      0.679559139650      0.754076329501
C     -0.463773458987     -1.219314184479      0.602901362644
H     -0.146705508118     -1.082047943713      1.632758025731
C     -0.115834909481     -0.106754621009     -0.355090047980
H     -1.033595166298      0.288942530216     -0.806312693780
H      0.496853163760     -0.504724594949     -1.171541685156
