14
OptimizedStructure
C     -0.973328718303     -1.751827682562     -0.984914732858
H     -1.390785774632     -0.943698338770     -1.571945386827
H     -1.143169423938     -2.746392095990     -1.374087834369
O      1.755140701640      2.778305236361      0.246248985196
C      0.743049640104      2.154016818335      0.386296387364
H     -0.095344242594      2.519823532141      1.018722789136
C      0.476447213038      0.824479549618     -0.269461261950
H      1.384336877973      0.469738011134     -0.762498795349
H     -0.288002744086      0.993969548660     -1.033661073240
C     -0.299933999647     -1.553602295924      0.136615727747
H      0.094338380507     -2.400709032645      0.690806919201
C     -0.029567372712     -0.204901115347      0.753852274800
H      0.715570392377     -0.312917375362      1.546853862800
H     -0.948750929727      0.173715240350      1.217172138348
