14
OptimizedStructure
C     -0.643014131193     -2.371969955630      0.162001415662
H     -1.518496423952     -2.402940284333     -0.474123348659
H     -0.475456765377     -3.246771050079      0.775582105039
O      0.566243004830      3.367528982876      0.005845301080
C      0.793975226795      2.195043620532      0.088141297522
H      1.829137492361      1.789605575947      0.063871078958
C     -0.272907493818      1.143044603607      0.245918555845
H     -1.247837298413      1.587156077913      0.034890245317
H     -0.264663148199      0.852765128034      1.301477886270
C      0.177197187656     -1.334655543335      0.184586756911
H      1.049123828471     -1.328135005388      0.833615077583
C     -0.016463000005     -0.095293019832     -0.642830012286
H     -0.857424826125     -0.226794648006     -1.328943333126
H      0.880586346970      0.071415517694     -1.250033026116
