14
OptimizedStructure
C     -1.115662697540     -2.102472933570     -0.291094807944
H     -0.639383602203     -2.630176048957     -1.107802068157
H     -2.026317904004     -2.545021522643      0.088634650435
O     -0.915658251676      1.927582092943     -0.813206107326
C     -0.077075818493      2.058308904814      0.031695248293
H      0.037340172341      3.001115597644      0.609627768723
C      0.928061920971      0.998418047993      0.404982226512
H      0.937641310886      0.891512131664      1.493675411826
H      1.912212919933      1.379772342400      0.113098095198
C     -0.621290895682     -0.984175994693      0.213703887713
H     -1.127696099946     -0.477924997800      1.030747149832
C      0.646311133429     -0.337205759603     -0.286597297372
H      0.568543172053     -0.167669572275     -1.365936164461
H      1.492974639931     -1.012062287916     -0.121527993271
