14
OptimizedStructure
C     -1.438038390315     -0.598896774501     -0.349487455744
H     -1.472315849595     -0.534327485120     -1.439413451701
H     -2.393816616156     -0.935783039645      0.049734710835
O     -1.360256213526      0.892939954889      0.095143341859
C     -0.196071730407      1.469616818147     -0.118371150448
H     -0.073932003201      2.027719297768     -1.054521023752
C      0.927740969521      0.988560204569      0.552519965749
H      0.820093819781      0.709184231509      1.593001009571
H      1.883858742092      1.449337914238      0.327538324636
C     -0.279941598442     -1.280291185376      0.189330914852
H     -0.388893480471     -1.713061473122      1.179978621482
C      0.971740551650     -0.763892287281     -0.156220277436
H      1.155326948024     -0.520394824661     -1.197617094704
H      1.844504851045     -1.190711351412      0.328383564800
