14
OptimizedStructure
C     -1.108366972768     -1.634754760302     -0.040370335570
H     -0.619830572552     -1.896984192540      0.889123924684
H     -2.067529827161     -2.103460931334     -0.212849088731
O     -0.753237665088      1.827860415152      1.839813223366
C     -0.175849870674      1.647520297222      0.806486676997
H     -0.373004053012      2.265323993819     -0.096878595474
C      0.885452710307      0.594888204604      0.610867569282
H      0.847065310330     -0.115685288647      1.439169185488
H      1.850431224000      1.110144628518      0.652438173584
C     -0.579720465786     -0.796909811445     -0.917246558933
H     -1.107320473337     -0.567354422378     -1.838740824328
C      0.753012506291     -0.109549427210     -0.747822756508
H      0.890038785137      0.624967348499     -1.547091001567
H      1.558859364312     -0.846006053957     -0.836899592291
