14
OptimizedStructure
C     -1.108632391752     -0.608650591717      0.141806861491
H     -1.945319226765     -0.271297031009     -0.487446481862
H     -1.503549604934     -1.242699640727      0.943749515548
O     -0.510550625574      0.500775588768      0.797369880781
C     -0.052908869875      1.524274016651      0.025177762000
H     -0.295508309332      1.467607160641     -1.036982018333
C      0.629973945464      2.533420858429      0.545549616931
H      0.863723570192      2.578999651113      1.599023325176
H      0.971713653991      3.347508540415     -0.073636233437
C     -0.102514858634     -1.376835806914     -0.689911586434
H     -0.138632858163     -1.213303232608     -1.762785445921
C      0.801432995117     -2.180872377884     -0.155601892392
H      0.862252961693     -2.350397889361      0.911996413514
H      1.528519618572     -2.708529245797     -0.758309717063
