14
OptimizedStructure
C     -1.437335920592     -1.165857730828     -0.497846195844
H     -1.857855526817     -0.171080189979     -0.441190990588
H     -2.055977880164     -1.910556221079     -0.980362562251
O     -0.892683780037      1.874377846373      0.860145546369
C     -0.064079945207      1.847609475938     -0.005146836826
H      0.037639535519      2.668326533171     -0.747770601326
C      0.953696063785      0.751301893090     -0.183106832513
H      1.917337904854      1.191891108674      0.094665473913
H      1.015828224329      0.491062491183     -1.243331864005
C     -0.247306474698     -1.468873821022     -0.004295963535
H      0.130964151307     -2.484943948614     -0.078353936182
C      0.669230204205     -0.487301298841      0.681637558076
H      1.613903861698     -0.980785015653      0.922122005712
H      0.216639581816     -0.155171122413      1.622835198999
