14
OptimizedStructure
C     -1.201253957698     -1.809619581189      0.067591829212
H     -0.546597383209     -2.433328631206      0.663874782736
H     -2.244024325278     -2.096288060673      0.057992522422
O     -1.262621772839      1.524756251643      0.660266859652
C     -0.089081031883      1.663915837196      0.848130719957
H      0.299258049370      2.405818479557      1.581252091161
C      1.029389713412      0.943405535627      0.141288951127
H      1.806315407952      0.736166770149      0.882630949272
H      1.451499009089      1.690769733575     -0.540077310225
C     -0.761620433264     -0.759158906573     -0.605321886573
H     -1.441438631294     -0.151551736878     -1.193338331332
C      0.684761194632     -0.348392874581     -0.640520268818
H      0.976810612391     -0.205878602653     -1.686002793927
H      1.298603548620     -1.160614213993     -0.237768114664
