14
OptimizedStructure
C     -1.502488756003     -1.685360800004      0.389703924681
H     -2.316806244245     -0.975535970035      0.462958037354
H     -1.688899744654     -2.661349232777      0.816891634824
O      1.299502965384      2.992040053527      0.468897723052
C      0.662177548172      1.981557374966      0.547550351125
H     -0.316949282324      1.937734183769      1.072332894354
C      1.103563433631      0.664076036560     -0.034788657168
H      1.427938509588      0.046947647700      0.809068337347
H      1.968964918972      0.828188564356     -0.680005651315
C     -0.353214206347     -1.384452427600     -0.192006674710
H      0.449343819574     -2.114968229564     -0.249854165551
C     -0.044589958129     -0.042531869604     -0.792321096464
H     -0.941253414920      0.586316356744     -0.781544579488
H      0.252710411301     -0.172661688037     -1.836882078039
