14
OptimizedStructure
C     -1.502384101496     -0.383410178249     -0.164788990083
H     -2.002962748313      0.095556819527      0.692944228419
H     -2.264002117160     -0.924813274962     -0.736412980523
O     -1.086971684581      0.714516342187     -1.024008344606
C      0.044189000899      1.316311325859     -0.729440826765
H      0.278518703853      2.175462583469     -1.346702200395
C      0.911194308135      0.846342392390      0.374671024620
H      0.482056023825      1.163764124853      1.335277283065
H      1.903998228162      1.295204414351      0.290442979282
C     -0.400892880837     -1.279357351995      0.286090161917
H     -0.447610999402     -2.295238031063     -0.092088025601
C      0.981362934972     -0.691336508533      0.358505363568
H      1.596603209622     -0.994224247318     -0.502619078864
H      1.506902122321     -1.038778410517      1.258129405966
