14
OptimizedStructure
C     -1.210755490995     -0.150847268569     -0.572093635735
H     -0.982179125310     -0.180715723322     -1.642213330740
H     -2.111009811809     -0.740572354790     -0.373925086907
O     -1.469628469467      1.202707977208     -0.203891614680
C     -0.385537929119      1.725492098887      0.384379956292
H     -0.326691067090      2.804483469444      0.415606330675
C      0.730457757002      0.759892202149      0.505048273409
H      1.238913510571      0.807704896201      1.469321262937
H      1.493128761111      0.916171684192     -0.280752844531
C      0.019780157122     -0.582970670047      0.272761313690
H     -0.390916600711     -0.956358228995      1.229769071348
C      0.923051313112     -1.554642422699     -0.386200558899
H      0.508767011713     -2.495505142450     -0.718795327632
H      1.962619983869     -1.554840517210     -0.099013809227
