14
OptimizedStructure
C     -1.042543945657     -1.590810463446     -1.023546600711
H     -0.497244740538     -1.681988218900     -1.954439835458
H     -2.046391583494     -1.993297707653     -1.024130377334
O     -0.713553510862      2.390162730016      1.463906213640
C     -0.441062032677      1.672975079232      0.544377205047
H     -1.175327026879      1.425569105460     -0.251497611031
C      0.920157385558      1.057327263136      0.338566577832
H      1.553869765946      1.307042467875      1.192071568285
H      1.339307066110      1.543272034808     -0.547725328146
C     -0.516022427591     -1.028383077740      0.052110291332
H     -1.085851035773     -0.952556220106      0.974563652866
C      0.880476757651     -0.473505858007      0.109641276359
H      1.416066267046     -0.719573134852     -0.811955616014
H      1.408119061159     -0.956233999822      0.938058583330
