14
OptimizedStructure
C     -0.818888877472     -0.214671894940     -0.475732668137
H     -0.288784216467      0.110870147554     -1.380554283365
H     -1.894996147586     -0.064249015210     -0.651592664452
O     -0.443026965916      0.553975039803      0.658860247186
C      0.398041121526      1.608418133918      0.568920970472
H      0.586987856531      2.008962140462      1.563617924190
C      0.950280696584      2.153791022465     -0.506777603762
H      0.795657132248      1.804947899502     -1.516792829307
H      1.605019048447      3.004091123816     -0.395030432010
C     -0.550847103988     -1.678281070165     -0.247991464394
H     -0.869206993631     -2.315659122919     -1.068236777589
C      0.013895613540     -2.178784388095      0.837297010355
H      0.331729997650     -1.553168988346      1.660516437859
H      0.184138838534     -3.240241027844      0.953496132954
