14
OptimizedStructure
C     -1.400043140269     -1.308280428334      0.036082179170
H     -1.777336282661     -0.474380789447     -0.540014218934
H     -2.136619497648     -2.038475031770      0.343305876653
O     -0.377281680062      1.372656707017     -1.738812124051
C     -0.166269346349      1.735049267937     -0.616235273396
H     -0.541743983069      2.708011634226     -0.231816649639
C      0.646102829554      0.967056392198      0.393549844124
H      0.126418810739      0.982641948342      1.355499506186
H      1.574086872025      1.534574280359      0.522586615583
C     -0.120223214756     -1.444146877224      0.344595369545
H      0.213610991705     -2.303575602341      0.919839214175
C      0.962281960534     -0.470743746423     -0.048720765572
H      1.087441036211     -0.477829289212     -1.137429276093
H      1.909574644046     -0.782558465328      0.397569702248
