14
OptimizedStructure
C     -1.275405726900     -1.687360732574      1.279354993176
H     -0.794575625376     -1.617567315632      2.246951321051
H     -2.196429008254     -2.253615751863      1.251035124409
O      0.591372888898      2.258501678613     -2.281478593473
C      1.032821504023      1.591038344090     -1.390780823235
H      2.092028964685      1.252797007945     -1.373782412398
C      0.227305885514      1.144920932149     -0.198483326100
H     -0.832802064901      1.310895162275     -0.404305901423
H      0.508029619149      1.800721715703      0.630803525670
C     -0.768089832421     -1.124574009066      0.195379178429
H     -1.271556989696     -1.207450408762     -0.763922080385
C      0.504992148016     -0.326828104116      0.185342053752
H      1.195104174406     -0.769097023651     -0.542207249499
H      0.987204062860     -0.372381495112      1.166094190026
