14
OptimizedStructure
C     -0.252467994839     -2.118902424466     -0.334227459776
H     -1.118497290298     -2.163279665110     -0.982494960309
H      0.388287936960     -2.990137059924     -0.343628572456
O      2.187525848826      1.891991676910     -0.013448794619
C      1.283873317891      1.213695978320     -0.410271104097
H      1.440710217455      0.375862926493     -1.122455907603
C     -0.157906131525      1.433048141874     -0.026272389880
H     -0.661710075235      1.779182909501     -0.933859747939
H     -0.208644662775      2.233829021441      0.714399881786
C      0.006891078717     -1.069170191675      0.428257101706
H      0.882754349098     -1.052868038152      1.071663867073
C     -0.862967220351      0.155834941156      0.492424283427
H     -1.145630349599      0.322189221745      1.536520022533
H     -1.782219024325     -0.011277438114     -0.076606219846
