14
OptimizedStructure
C     -0.485408576887     -2.238859083797     -0.239530138691
H     -0.204430931682     -2.209549033124     -1.284667720009
H     -0.521426870743     -3.221373888040      0.211139536871
O      2.542555552040      1.654598560792     -0.305611142545
C      1.356651085024      1.636924423332     -0.469875567167
H      0.880307908733      2.046142574259     -1.387440200287
C      0.379658267554      1.082413977518      0.534254394190
H     -0.059676332640      1.942592882086      1.047951645666
H      0.929885948415      0.499365710530      1.276507762729
C     -0.773924167312     -1.145145138448      0.445895225303
H     -1.049390591504     -1.201395442699      1.495557325802
C     -0.732565403017      0.240562209400     -0.133590118532
H     -1.700390174065      0.726575229011      0.023529706041
H     -0.561845713917      0.187147019183     -1.214120709371
