14
OptimizedStructure
C     -1.492932715740     -1.121825547765      0.102917550204
H     -1.851688302330     -0.224052656267     -0.384091545537
H     -2.256635101967     -1.772760216464      0.505809593209
O     -0.922494056055      2.389072137026      0.507109049955
C     -0.218014616799      1.724685353247     -0.198496890590
H     -0.323747596788      1.721590473273     -1.305605461872
C      0.902809704612      0.855619121962      0.308722026842
H      0.849800070149      0.787479473143      1.397486142618
H      1.832382228823      1.367417181151      0.039744849506
C     -0.206300194300     -1.410942803739      0.205653025437
H      0.112601841871     -2.319484894520      0.708218351930
C      0.903750062017     -0.542495366631     -0.332709064804
H      0.802750322319     -0.436435236041     -1.419211444847
H      1.867718354189     -1.017867018374     -0.135546182051
