14
OptimizedStructure
C     -1.432257213352     -1.786869336343     -0.074463919272
H     -2.220453921753     -1.205530694265      0.387186385122
H     -1.749161579985     -2.681714320141     -0.592745574659
O      0.795063498627      3.186598575362     -0.272658888131
C      0.241318438479      2.125406893412     -0.298809945467
H     -0.866253361727      2.035549494291     -0.333688384435
C      0.962603283646      0.802740983045     -0.298439033634
H      2.019455038144      0.969733319010     -0.080872125964
H      0.888979177450      0.410877481403     -1.317842564429
C     -0.159669753369     -1.432765825292     -0.004494666984
H      0.611960526112     -2.033045253985     -0.479204775621
C      0.328381393633     -0.197045227930      0.696345931167
H      1.080163938943     -0.475587093298      1.440433472698
H     -0.500129464848      0.281651004732      1.229254089611
