14
OptimizedStructure
C     -1.150890462891     -1.708592692856      0.861678977214
H     -1.904189832452     -0.931833279284      0.895330054871
H     -1.392910653283     -2.615877800216      1.398074014471
O      1.294764113143      3.024786978386     -0.185359299086
C      0.592417912118      2.150445134831     -0.604781286737
H      0.191297698857      2.159595037493     -1.641942572246
C      0.162953330685      0.954563978861      0.204040559191
H     -0.905580354709      1.074244824269      0.406583671112
H      0.695873367287      0.945706999605      1.157512581845
C     -0.006760775691     -1.574090464524      0.210940316551
H      0.713780329139     -2.387077980077      0.204669136994
C      0.403028215787     -0.351444806872     -0.570266327846
H     -0.157933159275     -0.316918579223     -1.512096224876
H      1.464150271285     -0.423507350393     -0.824383601458
