14
OptimizedStructure
C     -0.722718837417     -0.438131747408     -0.468572856395
H     -0.494712883699     -0.174620258121     -1.513350043678
H     -1.801243331387     -0.300546661123     -0.304527235047
O      0.013525689386      0.407864479090      0.410440977243
C     -0.179663210489      1.749143692560      0.297633727077
H     -0.885180570221      2.066115134876     -0.472283333395
C      0.455888192867      2.610596077815      1.078525511308
H      1.151955249425      2.284329159687      1.837121718979
H      0.294374311010      3.671951527604      0.977060198214
C     -0.323879350688     -1.867088434598     -0.188921140328
H     -1.037953142686     -2.462922663122      0.370920333832
C      0.839048209341     -2.370012031217     -0.566696135889
H      1.569327962877     -1.786379533032     -1.112683897798
H      1.121231711679     -3.390298743012     -0.344667824123
