14
OptimizedStructure
C     -1.126769055669     -1.355985836140     -0.861444467938
H     -0.770591153512     -0.877169158628     -1.764785561592
H     -2.034641130142     -1.933612968781     -0.970745024588
O     -0.863420280437      1.678455744006      1.244139749866
C     -0.179891079492      1.826992835299      0.272150634264
H     -0.240706851300      2.740202724218     -0.358920414707
C      0.850686861172      0.834312669461     -0.202931535366
H      1.829702129686      1.297063281285     -0.039753712674
H      0.742962825830      0.695887024555     -1.281706684915
C     -0.511240606478     -1.254368590260      0.305152765475
H     -0.915913687192     -1.763947537318      1.175005596161
C      0.762604336892     -0.491031479915      0.562325038781
H      1.618258471144     -1.118553603999      0.288957151849
H      0.838959219498     -0.278245103782      1.632556465385
