14
OptimizedStructure
C     -1.378471649936     -1.827680936652      0.093563250268
H     -1.736356257077     -1.625289911829     -0.907758582718
H     -2.002284824250     -2.474957049668      0.695331756103
O     -0.149012081249      1.865951847773     -1.732077362336
C      0.202300229091      2.066731322317     -0.605231196872
H      0.208859160931      3.086391910760     -0.162908726679
C      0.675767338982      1.006236282865      0.355980662215
H      0.040277824428      1.073380598410      1.244869625508
H      1.684245588754      1.286114455213      0.674488010064
C     -0.245906270218     -1.322177482437      0.553493243962
H      0.089687391621     -1.539614487589      1.564629099875
C      0.647933815109     -0.414212852707     -0.242754996369
H      0.299996269063     -0.358550994240     -1.279340886578
H      1.662963464751     -0.822322702215     -0.252283896444
