14
OptimizedStructure
C     -0.938870747309     -0.598933823547     -0.564805079732
H     -1.017892173081     -1.139845484840     -1.514797071177
H     -1.854427829571     -0.787135726544      0.022176148304
O     -0.881944286084      0.777946152770     -0.924653828168
C     -0.694993162748      1.744910773508      0.028013890571
H     -1.584717678910      2.348546320919      0.220881429671
C      0.464012334934      2.005333801704      0.614108805017
H      0.557000047735      2.815250123271      1.321784256378
H      1.358370288675      1.435836855038      0.407189339251
C      0.251883053956     -1.085904712858      0.220086283208
H      0.384813484375     -0.637416446967      1.199716780359
C      1.079388328093     -2.020099200253     -0.217588780821
H      0.964005116625     -2.487333437487     -1.187706492951
H      1.913373223310     -2.371155194713      0.375594320090
