14
OptimizedStructure
C     -0.534889944568     -2.335325848602      0.099823278051
H     -1.208885111547     -2.565166280948     -0.715791370392
H     -0.156557035063     -3.184510214693      0.652169820612
O      1.988893981360      0.703648427679     -0.874341029222
C      1.412207894912      1.489122711130     -0.178185776332
H      1.924848244299      2.366480638981      0.272840445381
C     -0.055573791428      1.412177162575      0.157536795610
H     -0.532824430102      2.278508349205     -0.312444517932
H     -0.175110720665      1.529806400701      1.238576781781
C     -0.189436551117     -1.095502339129      0.405295146219
H      0.493059384463     -0.900974285176      1.227885241322
C     -0.696767244115      0.114555711281     -0.339057936311
H     -1.783861898930      0.185851526910     -0.226539350163
H     -0.485102777499      0.001328040086     -1.407767528623
