14
OptimizedStructure
C     -0.915388379594     -2.153918174876     -0.008764853908
H     -0.073586071665     -2.830276504131      0.075663437627
H     -1.889209128640     -2.592381060504      0.162212990973
O     -1.205857961090      2.064402757968      0.343654672649
C     -0.008947603878      2.080850030392      0.278564820239
H      0.547674439371      3.014894482991      0.047666662865
C      0.865929353886      0.869558582127      0.490517219326
H      0.659235871134      0.471497772707      1.487862718288
H      1.919366349395      1.150018574252      0.435698852951
C     -0.770500171145     -0.874386328189     -0.310738925154
H     -1.631466850082     -0.218063073767     -0.385305537554
C      0.563118614388     -0.227690990103     -0.555011600088
H      0.579461513285      0.221714802758     -1.553667486089
H      1.360170024635     -0.976220871624     -0.508352972127
