14
OptimizedStructure
C     -0.962190475592     -2.071435636338     -0.510586905104
H     -0.136334481715     -2.721291824646     -0.773016277064
H     -1.947123656960     -2.435628292200     -0.769585655371
O     -1.163915588021      2.107221206304      0.197103504675
C      0.033685984128      2.084747080207      0.245550981335
H      0.613019987323      2.921876960786      0.691832807791
C      0.879558017258      0.947742244421     -0.273372114619
H      1.939400733638      1.186209459486     -0.167262780062
H      0.653726663962      0.813255278361     -1.334873941722
C     -0.786150824724     -0.909631015257      0.096540240854
H     -1.631708047875     -0.276379491211      0.344753782163
C      0.563804963211     -0.368607341958      0.472486779830
H      1.343738987987     -1.096905746723      0.229486090645
H      0.600487737382     -0.181172881232      1.550943486649
