14
OptimizedStructure
C      0.878463763690     -0.248729111707     -0.997007206741
H      1.918098978063     -0.432738845335     -1.302899838620
H      0.299757139049     -0.010231141964     -1.902154842563
O      0.906995625874      0.871633403076     -0.120718333424
C     -0.188919228825      1.701542870266     -0.126328025967
H     -0.107146647876      2.550327695240     -0.809785980697
C     -1.242352147612      1.530137850624      0.655456663122
H     -1.325239515267      0.694195226674      1.334483127165
H     -2.061314309893      2.233672876691      0.647868696831
C      0.328849665010     -1.493511445747     -0.346831666543
H      0.055626529380     -2.280884785417     -1.043742979695
C      0.212366779940     -1.658433164867      0.959938517887
H      0.497400476562     -0.884753702895      1.660627758035
H     -0.172587108095     -2.572227724639      1.391094111210
