14
OptimizedStructure
C     -1.260158687734     -1.437965948761     -0.019338240923
H     -1.737795955648     -0.628503557149      0.514153668170
H     -1.893715226936     -2.286027195664     -0.241885080097
O     -1.318002244677      1.495013774673     -0.773770625254
C     -0.331842967481      1.825144383707     -0.178951619457
H      0.031423544167      2.875960720861     -0.194995150537
C      0.520370783562      0.891788373280      0.647897779152
H     -0.081668871818      0.549125581571      1.494798034715
H      1.382011141612      1.434509803090      1.042167073047
C      0.003733147689     -1.411528763477     -0.404980264555
H      0.420358204084     -2.253915597605     -0.952936207723
C      1.011245206738     -0.320653970147     -0.164553449346
H      1.389691609580      0.027773423826     -1.132618664335
H      1.864350316861     -0.760721028205      0.365012747145
