14
OptimizedStructure
C     -1.234360143093     -2.071764833336      0.442243641103
H     -2.018860388880     -1.861075656596     -0.273633337595
H     -1.427933212878     -2.887077143159      1.126124407810
O      1.813131255434      2.248875097327     -1.121384296736
C      0.725107543264      2.167084329795     -0.625564317971
H     -0.087117249457      2.885109487984     -0.868702471122
C      0.339059032355      1.073336271387      0.337986070870
H     -0.598916440383      1.304557220321      0.845165691605
H      1.134401813389      0.963844099026      1.079527477447
C     -0.104181879461     -1.385042917206      0.475140709598
H      0.666245995662     -1.614734008756      1.206331185083
C      0.208646348855     -0.247270474506     -0.451445106606
H     -0.573937992919     -0.142524788604     -1.209323792359
H      1.158715318110     -0.433316683677     -0.962465861128
