14
OptimizedStructure
C     -1.194508509652     -0.362559543610      0.030109633697
H     -1.882106787550     -0.607372618974      0.847783059269
H     -1.664992622292     -0.659037010886     -0.923283056115
O     -1.058674664798      1.054641050308      0.070386156781
C     -0.193828024329      1.700797081208     -0.773456211371
H     -0.692666694314      2.272693755458     -1.559126310341
C      1.122374351529      1.721191566490     -0.625752056592
H      1.624450259447      1.185709958889      0.166837132019
H      1.746168055330      2.291411687221     -1.297426261994
C      0.101010140897     -1.115833401885      0.189168309753
H      0.829608077331     -0.970849188167     -0.602420456826
C      0.349147179011     -1.931588452361      1.200116147887
H      1.277864892730     -2.481033766842      1.279049961756
H     -0.363845653340     -2.098171116850      1.998013952077
