14
OptimizedStructure
C     -1.120271175895     -1.673305848839     -0.816913297759
H     -0.656170115863     -1.735849811941     -1.793560242347
H     -2.105515554272     -2.111787271558     -0.735251937526
O     -1.440438096037      1.365320438226      0.645040759887
C     -0.379443086277      1.804618857823      0.308643041849
H     -0.245289234727      2.883218558256      0.069231275856
C      0.916512310988      1.044829248962      0.194816067915
H      1.502409930056      1.367590275274      1.062881656508
H      1.443571098548      1.425071106698     -0.684828497094
C     -0.527966997553     -1.094554986708      0.214483757186
H     -1.018126926062     -1.045502886532      1.181147725410
C      0.852677191171     -0.501898176223      0.146901563358
H      1.340080578565     -0.831416193716     -0.776445985010
H      1.437970077360     -0.896333309724      0.983854111767
