14
OptimizedStructure
C     -1.181930132515     -1.746767940091      0.769070093110
H     -1.990256088618     -1.055272309061      0.567110623805
H     -1.450625995057     -2.622070772983      1.344802283132
O      1.260225852070      2.038300992829     -1.637701896270
C      0.581602646661      2.141387175266     -0.655966656353
H      0.284485439893      3.129707040351     -0.243394473566
C      0.050031370354      0.973583689534      0.132108579461
H     -1.040906866934      1.054509056097      0.150229336582
H      0.394229357772      1.075314528236      1.166100185758
C      0.055599619369     -1.549390390373      0.342708018941
H      0.828672596563     -2.279238105077      0.566666287501
C      0.504306845545     -0.363001950811     -0.467990767184
H      0.109800252704     -0.439048036817     -1.487376930404
H      1.594765102193     -0.358012977099     -0.546364684513
