17
OptimizedStructure
C     -0.356888410391     -2.505069975996     -1.834312410097
H     -0.295555182614     -1.925089480580     -2.746397696186
H     -0.786864044013     -3.492344005239     -1.919739402619
O      1.633889209735      1.771534684070      0.452587738460
C      0.489980594672      1.510952202353      0.728272316250
C     -0.136275314527      0.175978125122      0.430909886348
H     -1.141637154390      0.325031095656      0.036995385169
H     -0.259313727196     -0.336711716975      1.387384548498
C      0.083191893156     -2.030521111923     -0.688024570243
H      0.013317594394     -2.627900683175      0.212290111474
C      0.682931487545     -0.677834152384     -0.510545557420
H      0.768414449729     -0.173185840588     -1.474628282863
H      1.692523236149     -0.756428202376     -0.105840218199
C     -0.417680528221      2.499157667330      1.395233082681
H      0.148967861018      3.336415000145      1.788863653109
H     -1.124667747764      2.873547393914      0.656150488232
H     -0.994334217281      2.032469000648      2.190800927404
