17
OptimizedStructure
C     -0.006064929561     -0.800892179663     -0.826203969005
H     -0.192006600247     -1.114011365638     -1.856344838284
H     -0.679944980130     -1.360610486324     -0.173068118944
O     -0.314024262664      0.594605759857     -0.769405496813
C     -1.023956086548      1.020683254449      0.326367400402
C     -2.138913706280      1.698070353882      0.126158874222
H     -2.514677056662      1.859872296151     -0.871518869597
H     -2.681131115605      2.137539660843      0.951428605965
C      1.421205605008     -1.047394373117     -0.470760393137
H      1.715783074492     -0.770664164286      0.528813576167
C      2.298616948688     -1.556566043208     -1.311067845838
H      2.019625366220     -1.827429192454     -2.321314915755
H      3.328022516686     -1.730783386815     -1.034532995543
C     -0.425513478490      0.769548931568      1.666697539533
H      0.574044833633      1.201344875390      1.715801875148
H     -1.040918663535      1.223126929744      2.442591944628
H     -0.340147465006     -0.296440870379      1.876357626852
