17
OptimizedStructure
C      1.679407914846     -1.608283714245     -0.166060386073
H      2.435419960940     -2.092956990157      0.433764470334
H      2.014380626788     -1.170537410798     -1.098945750172
O     -0.340179636687      1.337474069978      2.013196878236
C     -0.464332198982      1.178379816779      0.824113297617
C     -1.400698693150      0.142564889767      0.262252972397
H     -1.909145556400     -0.341061732680      1.092453952965
H     -2.151037347049      0.638604142889     -0.351618614247
C      0.418201010415     -1.561214530762      0.207601705132
H      0.108849937785     -2.001350966208      1.145902055747
C     -0.669361072865     -0.897422811841     -0.572187656618
H     -0.252164810666     -0.439808290358     -1.471794342636
H     -1.394604712578     -1.645805401945     -0.898164170272
C      0.322104892089      1.977855086596     -0.169850641067
H      1.154838955945      1.365068016264     -0.509841176168
H     -0.274878155674      2.247384019094     -1.039074411253
H      0.723198885244      2.871111807626      0.298251816077
