17
OptimizedStructure
C      0.862501222617     -1.429183594389     -1.627295121629
H      1.855213428573     -1.027471474224     -1.462208801885
H      0.650437112095     -1.786131303909     -2.624225110056
O     -1.930662646020      1.436848566626     -0.406852313560
C     -0.922547540774      1.179403634164      0.203123637476
C     -0.852494508564      0.012129370576      1.150723329762
H     -1.830787850931     -0.460925628135      1.179143309966
H     -0.625115739468      0.379927626701      2.150185534561
C     -0.029892911432     -1.488879456969     -0.661608403620
H     -1.016162417288     -1.889854514939     -0.852179066201
C      0.200063476022     -1.002504499482      0.731963137458
H      1.199705453669     -0.569959770349      0.811818843369
H      0.157419988887     -1.845207139083      1.425035513558
C      0.331458501030      1.983212852660      0.038904548629
H      0.105881478614      2.945602105082     -0.409231373405
H      0.851451688086      2.124039167317      0.984610433765
H      0.993531264884      1.438954058352     -0.631908098190
