17
OptimizedStructure
C     -0.523879629284     -1.020785729773      0.087365226954
H     -1.289618389776     -0.598390763280     -0.567777558433
H     -0.983492115050     -1.814656650834      0.680942003836
O     -0.074858052557     -0.032499686459      1.018573648347
C     -0.312726279305      1.277814218604      0.682777486171
C     -0.949329104259      2.041616140531      1.550769698379
H     -1.326767130923      1.631540114565      2.473871571243
H     -1.075118528074      3.100723712846      1.375638475978
C      0.617755424086     -1.571190546318     -0.698719152216
H      1.147356117795     -0.868406210048     -1.321713105786
C      0.992017271288     -2.833017254804     -0.644458358540
H      0.477174900843     -3.546683281753     -0.014044989314
H      1.820016466863     -3.214279733201     -1.223729664851
C      0.257116321283      1.766650130016     -0.603304065399
H     -0.178439926434      1.250810148993     -1.458744653554
H      0.069197175671      2.833776124726     -0.714646718265
H      1.333595477834      1.596979266188     -0.622799844551
