17
OptimizedStructure
C     -0.187069908074     -0.821290148432     -1.337950359369
H      0.200809954848     -0.949696128042     -2.350905845185
H     -1.274323879413     -0.740335567901     -1.408111189767
O      0.364389803716      0.402570090060     -0.885703418842
C     -0.264562134481      1.047613739226      0.139206890507
C     -1.313566313125      0.618025754144      0.818389944295
H     -1.779976686067     -0.338134494354      0.649010644845
H     -1.726260869574      1.234271054665      1.604749583143
C      0.199083224745     -2.004419494665     -0.510886595938
H     -0.256439079362     -2.933281057052     -0.827084694135
C      1.040529841534     -1.975778867308      0.499233626366
H      1.497881203873     -1.048970767005      0.808722813822
H      1.300220878298     -2.866761590686      1.051322262368
C      0.415143070701      2.348121451522      0.394009096520
H      0.392032315699      2.965805982886     -0.502527967635
H     -0.068656399537      2.882376845995      1.209475209792
H      1.460764976219      2.179883196946      0.649049999213
