17
OptimizedStructure
C     -0.737221828779     -1.113215803641      0.292525792243
H     -1.584972281209     -1.775783536228      0.482363090809
H     -0.152665411973     -1.038635651062      1.213896138955
O     -1.329605053678      0.139519218160     -0.044245459862
C     -0.622350106742      1.271079999188      0.282184010528
C     -1.278916293638      2.263850978121      0.854086388597
H     -2.321347612622      2.162084803846      1.109665662988
H     -0.797804745878      3.212211710963      1.045318136938
C      0.079673076004     -1.672243033858     -0.824617995762
H     -0.386745101888     -1.608365841472     -1.795536131391
C      1.254587737285     -2.244786707161     -0.668070548603
H      1.725685558175     -2.314537631077      0.304925192383
H      1.797711940015     -2.682608173174     -1.492285565509
C      0.812035990086      1.336903286812     -0.111518597002
H      0.923163688360      1.125964373651     -1.174955652475
H      1.206112806260      2.331272200318      0.095955206621
H      1.412657640220      0.607289806615      0.430310330541
