17
OptimizedStructure
C      0.829394100223     -0.888993781401      0.450774865367
H      1.131189042838     -1.663909792826      1.157158698600
H      1.729149241269     -0.387518727888      0.086950301191
O      0.034028268436      0.017853355877      1.210380584125
C     -0.365709403172      1.169586308253      0.578345870702
C     -1.619469263056      1.555622990534      0.728271671847
H     -2.322051095579      0.944472659802      1.271787011949
H     -1.960914559878      2.505570031036      0.342022507071
C      0.060119178923     -1.482518962557     -0.680024751457
H     -0.334967994656     -0.777764251560     -1.395922712836
C     -0.154205185998     -2.774138910555     -0.820365203621
H      0.224835273196     -3.490150417698     -0.102410042108
H     -0.709365704635     -3.178847399714     -1.653814369827
C      0.666661510770      1.956547262527     -0.153654767744
H      0.983453625827      1.458291505388     -1.069470252995
H      0.261286004761      2.930691623408     -0.422594746789
H      1.546566960730      2.105206507374      0.472565336523
