17
OptimizedStructure
C     -0.417450503486     -0.947195504312     -0.010565191146
H     -1.495690151463     -0.831185376667     -0.156327404540
H     -0.229466001724     -1.147070662092      1.048162271030
O      0.240547159864      0.248106664210     -0.409775997923
C     -0.111265163777      1.392516124911      0.237607994137
C     -1.010222247285      1.506393952394      1.200713501228
H     -1.576465736072      0.676148462103      1.587943791086
H     -1.201614343679      2.476529979186      1.637133270258
C      0.112070439902     -2.046507040185     -0.860930281998
H      0.042072742398     -1.875635323813     -1.924043169101
C      0.627474722246     -3.158302693969     -0.380091657817
H      0.708421384317     -3.330494700938      0.685581450415
H      0.985009744929     -3.949853259753     -1.021751164488
C      0.678098846418      2.534271905436     -0.301410018843
H      0.494405925623      2.645289387257     -1.369221831410
H      0.411385774033      3.459925151646      0.205449125242
H      1.742687407756      2.347062934586     -0.168474686127
