17
OptimizedStructure
C      1.002854620269     -0.569157749735     -1.044926404519
H      1.999522835719     -0.915213189724     -1.327489494491
H      0.621072097117      0.027855668059     -1.875343162373
O      1.214022659805      0.234906912840      0.102027179549
C      0.187078710529      1.032953456897      0.545452722730
C      0.203302116145      1.390706271024      1.817887063270
H      0.969781846494      1.028835019489      2.484081786804
H     -0.530570647768      2.078735308521      2.210099654718
C      0.117281597612     -1.750278798957     -0.813460779979
H     -0.079044247225     -2.336270548462     -1.701581802769
C     -0.382474183934     -2.104484232539      0.350910495878
H     -0.179112811589     -1.527437006878      1.238286577710
H     -1.005752313354     -2.980150844579      0.458386388106
C     -0.836148491609      1.502440814470     -0.428191875684
H     -1.415167305079      0.670144827765     -0.826045154706
H     -1.517983454461      2.188600523665      0.071688247055
H     -0.368663028670      2.027813568145     -1.261781441301
