17
OptimizedStructure
C     -0.164664389483     -0.643499303753     -1.407239958407
H      0.487240745899      0.071086247800     -1.913364735759
H     -0.772910210776     -1.125978380091     -2.175481321680
O     -1.098504443324      0.022993867053     -0.576370327486
C     -0.633107775939      0.942355148000      0.332639775189
C     -1.392729380789      1.192355174911      1.385167452154
H     -2.316467304017      0.658371547666      1.539527378057
H     -1.121771209421      1.959240516960      2.095274861515
C      0.655202392028     -1.676947828103     -0.705338391210
H      1.398753957338     -2.151620149098     -1.331841544615
C      0.507697730057     -2.033544921990      0.552460256054
H     -0.239642363562     -1.568768646901      1.174747379368
H      1.122441991959     -2.800217934681      1.000925236247
C      0.647665922678      1.648399031797      0.056023446385
H      0.613670258884      2.152856885579     -0.910308351986
H      0.818361771152      2.396488982048      0.828563724609
H      1.488762307318      0.956429762803      0.054615121566
