17
OptimizedStructure
C      0.681034324932     -0.610585591349     -0.620301804212
H      1.713094426889     -0.361155539327     -0.345409136880
H      0.460942250543     -0.090537017829     -1.560891132594
O     -0.204389187268     -0.180642621898      0.400148626287
C     -0.168481074647      1.183427430954      0.606162628625
C      0.640707495671      1.695996357493      1.511214054192
H      1.318878882272      1.069668096039      2.070196008933
H      0.638007153908      2.755138600551      1.727780294898
C      0.557002197911     -2.082283244971     -0.828305491805
H      1.210643189577     -2.474976142874     -1.595386859026
C     -0.259034841653     -2.867050415830     -0.159865531203
H     -0.901713911170     -2.458147012012      0.602342195367
H     -0.310314075216     -3.929136015654     -0.348026825443
C     -1.150521217825      1.946755593856     -0.206909467050
H     -2.155474117316      1.573629553673     -0.012788522546
H     -1.114728740656      3.008911357329      0.032326558990
H     -0.955652755952      1.820986611848     -1.272285596533
