17
OptimizedStructure
C      0.510858207381     -0.713600536075     -0.224104945022
H      0.636997677662     -0.887805308124      0.849709115735
H      1.429645960878     -0.269017020673     -0.616117080008
O     -0.591293227276      0.157561655626     -0.461238044965
C     -0.578410023176      1.345318820351      0.227734818002
C     -1.702660046305      1.746072164651      0.792098779000
H     -2.584601528549      1.126566616583      0.763648184329
H     -1.774887803677      2.716062492579      1.262927949703
C      0.217864126328     -1.989569999571     -0.930640535929
H     -0.026184751314     -1.882372797928     -1.976249703635
C      0.246613603116     -3.171269624959     -0.351539390983
H      0.479218972896     -3.281734487439      0.700024776589
H      0.047583544412     -4.082359727077     -0.896032082687
C      0.680966514702      2.140080388903      0.217487560722
H      1.047762230494      2.260490921118     -0.802188689723
H      0.496834841246      3.126061673060      0.641216264963
H      1.463691701182      1.659514768975      0.803263023908
