17
OptimizedStructure
C      0.855504291946     -0.558475494445     -1.077080872587
H      1.736376377199     -0.898072577453     -1.624577159325
H      0.124898471264     -0.188322980633     -1.801256683102
O      1.340139716897      0.494769842290     -0.250670091639
C      0.408287347706      1.114012644598      0.548934320577
C      0.726996247774      1.342053774576      1.809382100905
H      1.664145045528      0.994158725119      2.214392379875
H      0.073834940598      1.912030819039      2.454825979120
C      0.282966458092     -1.674131804045     -0.270805008073
H      0.912132845353     -2.022183200374      0.533907656327
C     -0.895622256038     -2.215977166236     -0.497168311904
H     -1.533175662938     -1.869795694619     -1.301729318708
H     -1.275722951139     -3.037093959402      0.092203502414
C     -0.861214512913      1.562753946836     -0.087866917393
H     -1.500125575409      0.716554706135     -0.336513701091
H     -1.406490311551      2.210347308466      0.597418612504
H     -0.652930472368      2.117371110150     -1.003396487899
