17
OptimizedStructure
C      1.941971199068     -1.932911288619      0.296285543868
H      2.540321188080     -2.827699090043      0.382614616969
H      2.250113346945     -1.088938140778      0.896359789923
O     -0.486832416126      2.324005500676     -1.210598495335
C     -0.639253104432      1.614660117782     -0.247143350803
C      0.342565232932      0.528911241933      0.092452230203
H      1.343666772117      0.857098948259     -0.174430049241
H      0.320795707403      0.289082714225      1.153932691982
C      0.898164369795     -1.879608705295     -0.503707668455
H      0.628356736925     -2.748047564318     -1.090025403869
C     -0.003974569933     -0.704292535647     -0.717923347350
H      0.012496345424     -0.436594815703     -1.777353484910
H     -1.030930528927     -1.014741440143     -0.500184179707
C     -1.817247175810      1.733586928105      0.666555608995
H     -2.264037878102      0.757262047912      0.845958437853
H     -1.476338622242      2.116307457994      1.627666543597
H     -2.559836603117      2.411918623658      0.259540516280
