17
OptimizedStructure
C      0.144297943314     -2.379327514160     -1.476625555323
H      0.320774600197     -2.555370591026     -2.527403357844
H     -0.190774231576     -3.228757368490     -0.894267379847
O     -1.135000447385      1.956763478653     -0.888499514096
C     -0.543999456030      1.491615513901      0.054574196533
C     -0.965293186223      0.195283655835      0.692058381768
H     -1.901688203162     -0.121436770839      0.240706772462
H     -1.134320590255      0.360616626395      1.755098815396
C      0.326708863222     -1.196893535557     -0.928485579126
H      0.646060235426     -0.359353878377     -1.532725369854
C      0.081701758189     -0.895272585900      0.514225624567
H     -0.254722681747     -1.800800785765      1.023225784658
H      1.013104376526     -0.584088786275      0.992756001029
C      0.663222729908      2.161703579816      0.639957632003
H      0.738658903219      3.182579778115      0.280376408623
H      0.637196755561      2.152913631793      1.727678551668
H      1.554072630817      1.619825551880      0.327348587383
