17
OptimizedStructure
C      1.821441066952     -0.891636057135     -0.600066873642
H      2.738478479599     -1.181241244544     -1.092323368284
H      1.717620201194      0.158725176970     -0.367500411450
O     -1.290529492384      0.530568043125     -1.425513161361
C     -0.855521475198      0.884510020282     -0.359033397331
C     -0.638954496332     -0.073065961116      0.783690536864
H      0.186537312001      0.258368648319      1.411382901927
H     -1.540846813827     -0.015264413266      1.393866240292
C      0.881953705984     -1.771572640711     -0.323963998785
H      1.028366058426     -2.809096831564     -0.594359439422
C     -0.433170927249     -1.498726373229      0.334725959767
H     -1.227338411378     -1.752133243236     -0.369122745145
H     -0.540240132352     -2.169014062214      1.190578978093
C     -0.533052221423      2.316564562407     -0.058104722840
H     -0.983990831018      2.620192812594      0.884554151412
H      0.544920329343      2.427037830597      0.047861160067
H     -0.875672352339      2.965783732721     -0.856671810162
