17
OptimizedStructure
C      0.484453565326     -0.851477171730      0.334445236212
H     -0.431675530811     -1.427441609078      0.493077737978
H      0.922981864271     -0.620224242429      1.309904449184
O      0.191103499283      0.361381409799     -0.346728394807
C     -0.669460489064      1.220528774771      0.264701292203
C     -1.258802598730      1.042820152204      1.435068601144
H     -1.115515449576      0.168414735151      2.047253690079
H     -1.924941277198      1.804125636172      1.815765692518
C      1.448342650995     -1.608001606253     -0.508518290244
H      2.340108783148     -1.065297970767     -0.781522950813
C      1.256802322163     -2.849585779213     -0.901860317489
H      0.359689028283     -3.395154906489     -0.638414800656
H      1.984287854603     -3.382285250680     -1.496087949479
C     -0.864306976004      2.424627478396     -0.589361617870
H     -1.261646758754      2.132485255164     -1.560361466601
H     -1.551556876386      3.124332227431     -0.117157973022
H      0.090136388452      2.920752867555     -0.760202938337
