17
OptimizedStructure
C      0.015277682373     -0.686851947370     -0.590074046211
H      0.172727004179     -0.201395049673     -1.557059703647
H     -1.062028180122     -0.783274341846     -0.418335712518
O      0.617620509527      0.084052502800      0.445652755314
C      0.051001671708      1.310806303526      0.689811643384
C     -0.145687903786      1.662964951462      1.946955497119
H      0.075190812307      0.979909037038      2.751393141925
H     -0.497604350245      2.652923117982      2.199720626494
C      0.669465784286     -2.022892783497     -0.575870769076
H      1.746942806832     -1.999959760824     -0.629749668866
C      0.011202970468     -3.160532551325     -0.504053906175
H     -1.069026612047     -3.187200281248     -0.437310920952
H      0.513823565902     -4.116271753158     -0.515047442162
C     -0.223106267431      2.193629622915     -0.477775583256
H     -1.039296500924      1.809620769179     -1.088558932237
H     -0.498201701564      3.188177985772     -0.130215934292
H      0.661698708534      2.276294178268     -1.109481044845
