17
OptimizedStructure
C     -0.277478264165     -1.070064714114     -0.585230722213
H     -0.726965279433     -0.770485556285     -1.537421950596
H     -1.063950970600     -1.534094605931      0.018583321694
O      0.233380286136      0.067128223020      0.083483433543
C     -0.649223946985      1.060753994175      0.379960816313
C     -1.942831324052      1.073750104901      0.106184798238
H     -2.454412521885      0.271597724171     -0.398263165084
H     -2.537742682360      1.928047741071      0.396592716123
C      0.818048172739     -2.051571747260     -0.829644888788
H      0.492904416407     -2.947921611878     -1.339949685145
C      2.074556734411     -1.889066177725     -0.477764040489
H      2.389707723582     -0.992485008584      0.030489994813
H      2.823623653709     -2.638997614149     -0.683565042937
C      0.063656420598      2.166667205721      1.077074234671
H      0.858528643221      2.557168861919      0.443142916762
H     -0.624739507590      2.972849141942      1.323619694367
H      0.522938446266      1.796724039007      1.992707568727
