17
OptimizedStructure
C      1.351301480472     -1.556566569239      0.490065026989
H      1.182908393598     -0.946628475907      1.363600903388
H      2.257244806816     -2.145840926671      0.482860098108
O      0.218071035117      1.440960671384      1.907183222746
C     -0.162786841629      1.181824363227      0.791318153972
C     -1.123848526321      0.049787861143      0.537173615377
H     -1.206108170420     -0.542210544031      1.445160002869
H     -2.098050750703      0.504761275579      0.356133504915
C      0.511818936698     -1.590010732802     -0.524364246335
H      0.728011058976     -2.218362417683     -1.378725119415
C     -0.778372433791     -0.837909617570     -0.640406400418
H     -1.583955059154     -1.563713272075     -0.774949112118
H     -0.758120731279     -0.244923013550     -1.557560686686
C      0.275329524603      1.978610999559     -0.398656695377
H      0.988695995867      1.384603928048     -0.966586508698
H     -0.562121462717      2.210665053611     -1.054117342916
H      0.759982743869      2.894951416977     -0.078128416401
