17
OptimizedStructure
C     -0.161812630581     -1.444104005425     -2.068146219407
H      0.764661942892     -1.050342983487     -2.462612231472
H     -0.934720991935     -1.681983698112     -2.785316577410
O      1.126544762201      1.379595701716     -0.594057789020
C      0.344189340587      1.213020852953      0.307897740134
C      0.273993922219     -0.076821798366      1.084539310541
H     -0.725714644773     -0.220830504844      1.493307941194
H      0.947784178951      0.045792659716      1.933324444066
C     -0.334931068545     -1.606782931716     -0.773795481538
H     -1.274171390429     -1.983241415589     -0.387518513640
C      0.694179878800     -1.272550393960      0.255491801145
H      1.638569413105     -1.035387183647     -0.233626061505
H      0.852051687975     -2.129423479554      0.912717340498
C     -0.611316566044      2.276730221638      0.748925938800
H     -0.369520609263      3.230790934496      0.292820558522
H     -1.614946050541      1.984069478136      0.443131113942
H     -0.614841174620      2.371468546045      1.832916685154
