17
OptimizedStructure
C     -0.957901480067     -2.276413833527     -1.601327083156
H     -0.995842847800     -1.593060404644     -2.440588731218
H     -1.491210027793     -3.208376728485     -1.717264521806
O      1.767323796675      1.275626172129      1.706099435288
C      0.730990026322      1.303928602419      1.089626300389
C     -0.096410830542      0.064557529105      0.890667781805
H     -1.141926050145      0.304467695940      0.706076298419
H     -0.033703549372     -0.551465602184      1.784730702868
C     -0.286703702636     -1.987323819456     -0.506584556108
H     -0.261647856293     -2.683992840673      0.320977173147
C      0.464589474146     -0.716595302038     -0.288725578229
H      0.426198069453     -0.107832596977     -1.196542579161
H      1.514426088694     -0.933625526645     -0.081157618268
C      0.203001398096      2.547894172439      0.449839355996
H      0.929869130241      3.351867407908      0.499995443238
H     -0.068005294005      2.356527755848     -0.587051457946
H     -0.703046344972      2.853817318839      0.971229634741
