17
OptimizedStructure
C      0.123199846482     -2.602837421408     -1.649593654331
H      0.755758719716     -2.195268867971     -2.427726915371
H     -0.304119292317     -3.577088564894     -1.836713567461
O      0.341171336256      2.508713901725     -0.691000399835
C     -0.030120163841      1.784142937296      0.198699907840
C     -0.652146725213      0.445504136449     -0.085707933550
H     -1.207619134911      0.500699587200     -1.018216182325
H     -1.333838087931      0.146006409176      0.709318316818
C     -0.104353795685     -1.942554428408     -0.534046003798
H     -0.744254030174     -2.363596404109      0.230802664016
C      0.452712581637     -0.591097283641     -0.231236168296
H      1.125971533585     -0.277736739801     -1.031548050417
H      1.035976467812     -0.633293757344      0.693035374990
C      0.120901684003      2.137322328483      1.644511608742
H      0.736987215370      3.021949069227      1.767335400306
H     -0.866417552877      2.332948747822      2.060938847419
H      0.550189398087      1.306186350200      2.201146755253
