17
OptimizedStructure
C     -0.051956265987     -0.760969042898     -1.048632357950
H      0.682977184981     -0.195125355227     -1.625779317828
H     -0.565101581688     -1.445900557649     -1.725466046405
O     -1.068724160092      0.109799527738     -0.558811391657
C     -0.658643382301      1.163502158777      0.220477651623
C     -1.342653745760      1.424739115507      1.319250116640
H     -2.153004664576      0.784114946051      1.628227363716
H     -1.130605923319      2.302463703985      1.913226520467
C      0.608129897712     -1.513582419937      0.056185813979
H      1.087046943877     -0.908789474162      0.811266641060
C      0.614502832537     -2.827407481654      0.144137960541
H      0.126404707733     -3.444910010812     -0.599000480879
H      1.106881504108     -3.348392028444      0.952078564106
C      0.470318145402      1.999565538676     -0.276881424378
H      0.303031302067      2.285808869782     -1.315421115960
H      0.549342534671      2.903104382699      0.325603413091
H      1.422054670636      1.471978127568     -0.220461910164
