17
OptimizedStructure
C     -0.054114518747     -0.869865010780      0.224189012279
H     -0.718038594937     -0.823580515661      1.094517519301
H      0.981432753235     -0.847179800298      0.572996364034
O     -0.326438538241      0.230111621383     -0.639024611943
C     -0.318118724090      1.472846346969     -0.055134790306
C     -1.285701073720      2.313494370293     -0.371840911263
H     -2.090223934429      2.009823323914     -1.022377233954
H     -1.274535926924      3.334372062381     -0.017721537157
C     -0.310842956880     -2.111583451796     -0.554368630335
H     -1.289418083387     -2.171930269364     -1.004917445809
C      0.570126622076     -3.078939672179     -0.699812230572
H      1.557413638720     -3.017664778174     -0.259642762188
H      0.349324928349     -3.977814243174     -1.256020111543
C      0.830252854289      1.815568425183      0.828477236742
H      1.773371437707      1.599523426794      0.326085803996
H      0.800514853523      2.875325452417      1.076903269499
H      0.804995263459      1.247492712092      1.757691059217
