17
OptimizedStructure
C     -0.125436500111     -0.665797339312     -0.873142326137
H      0.465839304993     -0.048999765071     -1.561296446299
H     -1.170162645908     -0.608439810682     -1.202064143665
O     -0.012039558613     -0.173996159025      0.451780270335
C     -0.392479389946      1.147142627746      0.571264168781
C     -1.634862245496      1.453212871168      0.886602525488
H     -2.383266747583      0.685485564257      1.009690083925
H     -1.935094773696      2.479821881966      1.043526094532
C      0.348018326855     -2.078360102188     -0.944218146938
H      0.284941774141     -2.514493644814     -1.931982349448
C      0.806069991679     -2.767100122104      0.077749118595
H      0.859805317149     -2.316439567640      1.055101501541
H      1.136371448056     -3.789921954934     -0.026159553556
C      0.718571688666      2.117800671540      0.393644138763
H      1.146957836447      2.040876300555     -0.606050064518
H      0.373871206212      3.139446230368      0.548925786196
H      1.512894967155      1.899762318170      1.106629342405
