17
OptimizedStructure
C      1.926613651832     -1.962460529467      0.029649968517
H      2.643132028436     -2.770438176536      0.035442763155
H      2.280475153798     -1.008490308003      0.393436590493
O     -2.140718240873      1.034705851271     -0.737862384267
C     -1.130542967499      1.259454528063     -0.119851934751
C     -0.017509330323      0.257661066285      0.020557031412
H      0.830649443206      0.636236343395     -0.552033679823
H      0.306298902732      0.224985456849      1.060787631603
C      0.694487640200     -2.141453996299     -0.399401404108
H      0.392015448805     -3.118405480018     -0.752833547878
C     -0.392401552241     -1.118259344847     -0.464467345932
H     -0.750559302742     -1.038242110279     -1.492296849964
H     -1.250768156052     -1.474804153708      0.109573480643
C     -0.892258892248      2.566205451074      0.573849191610
H     -1.001142846591      2.415422956258      1.646952911910
H      0.117514151088      2.929568960622      0.396320939527
H     -1.615285131528      3.308313485339      0.252176637854
