17
OptimizedStructure
C      1.920214434996     -2.369934329293     -0.680916939047
H      2.557353657263     -3.143803651974     -0.278341871350
H      2.227046211284     -1.934233612356     -1.623285273121
O     -1.995030318507      1.109627721345     -0.895170028329
C     -1.169419347005      1.297873662909     -0.037637522982
C     -0.172238886700      0.250973129314      0.377581556260
H      0.808155166271      0.710880300151      0.501882349386
H     -0.471150710567     -0.096213555223      1.369017859992
C      0.820704994105     -1.981111149729     -0.070393548399
H      0.531509252592     -2.431034006659      0.871013265177
C     -0.093921752122     -0.919133537368     -0.576960275615
H      0.241115695677     -0.566789405472     -1.554219780451
H     -1.101277368440     -1.314004308916     -0.713161342948
C     -1.060124178666      2.599668390757      0.696270460961
H     -0.920622142693      2.441720642156      1.763438434021
H     -0.184394321236      3.132277428438      0.327941845421
H     -1.937920386254      3.213236281920      0.522940811024
