17
OptimizedStructure
C      1.630952834234     -1.471402677446     -1.250525811670
H      2.701199003622     -1.483448144332     -1.401308851503
H      1.013670455232     -1.467306976929     -2.138192419470
O     -0.911924502259      0.833636670040     -1.413766603503
C     -0.746212586661      1.035266369809     -0.236805921687
C     -0.797825609212     -0.071980643131      0.784533286836
H     -0.192437655110      0.183653737998      1.653673110466
H     -1.833186593902     -0.120531756729      1.123847744360
C      1.094320215980     -1.446628382687     -0.049197347804
H      1.721967901129     -1.430827199186      0.833362557489
C     -0.376139123584     -1.407680173180      0.208573000347
H     -0.916361702405     -1.564156419816     -0.724716359941
H     -0.651143530776     -2.202983116092      0.903530728549
C     -0.494837143723      2.402771244388      0.316110561245
H     -1.114359263438      2.588602063337      1.191144008703
H      0.545389916693      2.457843183442      0.634431745865
H     -0.673072615821      3.165172220513     -0.434693428282
