17
OptimizedStructure
C      0.218208026946     -0.690386693695     -0.534420902629
H      0.972662004439     -0.072968803712     -1.028519766519
H     -0.665619624557     -0.746759126174     -1.179463519114
O     -0.149006703646     -0.137114687290      0.725852937778
C     -0.830571229936      1.054254380526      0.687178914745
C     -1.876999928898      1.196251333249      1.479663181368
H     -2.220313494270      0.378546497658      2.092986295769
H     -2.390021231692      2.143898992331      1.560220674854
C      0.754432194589     -2.053807352454     -0.274663455376
H      0.098351607434     -2.701540317008      0.285912609803
C      1.935666384471     -2.465547304402     -0.684779656989
H      2.602383648152     -1.815523319150     -1.237225436341
H      2.291477802956     -3.467666850069     -0.497027850610
C     -0.289445042763      2.134138113474     -0.183464233847
H     -0.407569263773      1.894936915980     -1.239691362182
H     -0.816268365453      3.066189744171      0.015084865042
H      0.772633216001      2.283098476567      0.012356704248
