17
OptimizedStructure
C      0.021780462770     -0.623848545659     -0.894677123497
H      0.595235280245     -0.004912886847     -1.591110134885
H     -1.031090005576     -0.575064901169     -1.196833267770
O      0.167142759396     -0.146445619073      0.432472304341
C     -0.374830878040      1.091035444054      0.683836862700
C     -1.133741785283      1.229972709142      1.754744225182
H     -1.374108968133      0.381536027955      2.375252656179
H     -1.504540482222      2.200267897776      2.052699872834
C      0.501189705439     -2.033777412400     -0.982740693641
H      0.417367035135     -2.463603850486     -1.971775122134
C      0.990378590538     -2.726710336212      0.021830989599
H      1.068220584613     -2.283883848611      1.001070392640
H      1.325781546535     -3.745896024858     -0.099923546349
C      0.008161437650      2.207953770368     -0.223614339777
H     -0.445221549243      2.099221874444     -1.208172835249
H     -0.321990400731      3.155811419478      0.198458504457
H      1.090266666906      2.238344282098     -0.351518744629
