17
OptimizedStructure
C      1.922184049908     -2.143483402333     -0.020284806287
H      2.914331197677     -2.174644658689     -0.446068499736
H      1.739522288937     -2.799130451743      0.822339556169
O     -1.014356370667      0.898597828163     -1.633499893954
C     -0.813960982539      1.161467422341     -0.473727532700
C     -0.704842993475      0.103864155046      0.591493230736
H      0.042481449513      0.396303255938      1.328543169771
H     -1.665556665553      0.097033358458      1.108211877244
C      0.979388167453     -1.362520201650     -0.503368987493
H      1.170085224052     -0.716801896146     -1.348011282916
C     -0.405525115407     -1.276961082282      0.045560847710
H     -1.122208422167     -1.487295731787     -0.748773177697
H     -0.537514727290     -2.019278323003      0.835244430835
C     -0.668184950801      2.569628185034      0.014125851648
H     -1.232226667567      2.728266455113      0.930705276545
H      0.381737099454      2.748173711451      0.242492015768
H     -0.985352581527      3.276781376089     -0.744982075642
