17
OptimizedStructure
C     -0.214596935497     -0.812068544434     -1.156759011747
H     -0.101080437576     -1.036605837845     -2.219136272948
H     -1.270004353060     -0.915002879009     -0.891816327405
O      0.202000103487      0.542369562875     -1.041051872846
C     -0.119721249169      1.215823280855      0.099671432626
C     -0.786873973183      0.742567736392      1.138088384302
H     -1.135284805822     -0.273298052572      1.209287643779
H     -0.985342452314      1.391354995748      1.980185291069
C      0.638523918302     -1.737131023303     -0.354992338765
H      1.699181942783     -1.553812639076     -0.433162520167
C      0.171051303286     -2.731985045722      0.369409985887
H     -0.892040999529     -2.921894515726      0.452967728451
H      0.819307323833     -3.410976113235      0.902623001521
C      0.392976177728      2.611360280695      0.009599412744
H     -0.032158786298      3.111678606443     -0.859351406317
H      0.138694363346      3.173438264224      0.906295528997
H      1.475368859684      2.604181923691     -0.111858659180
