17
OptimizedStructure
C      0.847487644225     -0.956654612669      0.640445155563
H      0.131193744046     -1.045471128948      1.461243306196
H      1.819040315108     -1.312295976098      0.989090065442
O      1.072806824682      0.409312787634      0.316704501095
C     -0.013791648753      1.216072611941      0.153188756488
C     -1.284050566068      0.865945126483      0.259140178287
H     -1.609531348292     -0.139168464565      0.464697240234
H     -2.052835287422      1.612636226288      0.114694909731
C      0.416854145861     -1.755483488469     -0.543958663790
H      0.977882848719     -1.563092132215     -1.445593393526
C     -0.540261382248     -2.658945925072     -0.517291117888
H     -1.107859769062     -2.857235017419      0.383668471883
H     -0.797363699178     -3.251888913904     -1.382101737939
C      0.441622357127      2.598484042545     -0.163084392224
H      1.030784868166      2.596901680191     -1.079197855608
H     -0.409702168181      3.265039463307     -0.288004597707
H      1.077723121269      2.975843720970      0.636359173763
