17
OptimizedStructure
C      2.132697076455     -1.534166314964      0.832534265925
H      2.986814235276     -2.184349084137      0.950291284566
H      2.068849526924     -0.696714190111      1.512188166772
O     -2.522038770839      0.605164552136      0.613740738032
C     -1.456507915247      0.961619745988      0.175299502997
C     -0.179339394527      0.264554066551      0.550909463330
H      0.680298921933      0.924268921719      0.448289195992
H     -0.245812376766     -0.070075078617      1.582772912352
C      1.219808689008     -1.760000563701     -0.088332885777
H      1.321853546251     -2.613886788846     -0.745003527039
C     -0.007565567606     -0.943339287333     -0.348577816138
H      0.005784576724     -0.626648103462     -1.396411315635
H     -0.886242627720     -1.583615589998     -0.237682311397
C     -1.317396407688      2.096089794091     -0.789213019349
H     -0.821443741823      2.924344843788     -0.284780287869
H     -0.692103809003      1.808456587098     -1.632595316458
H     -2.287655961351      2.428296489800     -1.143429050305
