17
OptimizedStructure
C      0.742831532410     -0.730611016509      0.323290632230
H      0.554038086924     -0.741626995563      1.403313760722
H      1.680613394252     -0.192386053381      0.156468290823
O     -0.327379288007     -0.087577877713     -0.348666675024
C     -0.661664687518      1.160343729361      0.119547186582
C     -1.936413449801      1.417046181012      0.345846114648
H     -2.683704750989      0.648451214058      0.229788468627
H     -2.264653270922      2.409289504537      0.620534924010
C      0.886033630953     -2.130365544842     -0.172358530738
H      1.686687604234     -2.682524396320      0.300969885147
C      0.133394870493     -2.681632558147     -1.098784667071
H     -0.659805449256     -2.117930309631     -1.561534501702
H      0.283824218525     -3.700981284193     -1.421829446497
C      0.432193412596      2.162145875168      0.251925941345
H      1.025647293025      2.198321192979     -0.661714350257
H      0.008808483502      3.148538221678      0.434560003180
H      1.099548369577      1.921500117506      1.078642963974
