17
OptimizedStructure
C     -0.030108261918     -0.606994987971     -1.354451395726
H      0.895447954236     -0.069625876169     -1.577629953633
H     -0.403720077655     -1.042723743274     -2.282658922816
O     -1.059674924678      0.288254692381     -0.947423033122
C     -0.828629856637      0.988361908544      0.213458401767
C     -1.807534129850      1.065890834337      1.095526199851
H     -2.736516886572      0.540987436295      0.938110170158
H     -1.715214818106      1.683940493215      1.977332854352
C      0.208234480070     -1.672587023683     -0.339426280450
H     -0.680654472538     -2.177832064481      0.005767999422
C      1.398502710282     -1.997369429908      0.120670916207
H      2.294565526009     -1.492614455527     -0.219816357196
H      1.542008448825     -2.788032646255      0.842007590143
C      0.481042255827      1.683899295905      0.353123412284
H      0.701379141117      2.264845129202     -0.543051713477
H      0.449191759704      2.357811020370      1.208195161265
H      1.291681151884      0.973789417018      0.510264950970
