17
OptimizedStructure
C     -0.939683564638     -1.093595823041     -0.099357781037
H     -1.543697322036     -0.487012055519     -0.778411081066
H     -1.613050831275     -1.815694823037      0.370343543946
O     -0.420678722609     -0.299317040041      0.958808794203
C     -0.292648823867      1.047607210958      0.711919106183
C     -0.747378850207      1.887679791100      1.623568947893
H     -1.253765066238      1.526011355367      2.503824810840
H     -0.590395953335      2.952268805882      1.527592190055
C      0.117156607359     -1.835261421764     -0.853891959592
H     -0.246398099470     -2.383157584691     -1.712783349310
C      1.385561331702     -1.880954873762     -0.510278624215
H      1.733290424465     -1.347385724584      0.360493815983
H      2.110355683699     -2.451799622731     -1.071155750948
C      0.432456119175      1.464828190881     -0.520208080178
H     -0.067292726532      1.113581990171     -1.422609451733
H      0.496737536832      2.551556125733     -0.561447967922
H      1.439432256973      1.050645499078     -0.526407163102
