17
OptimizedStructure
C      0.132538982872     -1.364955330014     -1.615057048161
H      0.530784998414     -1.854341400012     -2.492514098288
H     -0.712675898254     -0.713342025551     -1.771446125164
O     -1.582556253874      1.592796147949     -0.848402399323
C     -0.758046530297      1.213261879374     -0.052477367501
C     -0.980141075801     -0.029453021342      0.769756990157
H     -1.841118852886     -0.558151687816      0.368679655817
H     -1.242829959269      0.305652063848      1.773522618147
C      0.666486374736     -1.561539813548     -0.427129891712
H      1.515451037551     -2.224957911105     -0.324014399775
C      0.210720683283     -0.960295569546      0.866894309798
H     -0.041396201519     -1.774932563710      1.550019258840
H      1.052328486515     -0.437831703556      1.327267031233
C      0.517732109733      1.961742128543      0.182088645785
H      0.464191868654      2.945227224349     -0.273100753455
H      0.736338025216      2.055168404446      1.244296200048
H      1.332192204924      1.405953177692     -0.278382626445
