17
OptimizedStructure
C      1.021254031138     -0.987993091570      0.693212351021
H      0.610103390248     -0.937263750783      1.704142251609
H      2.081308543111     -1.236641660231      0.779674532022
O      0.992403946589      0.293646874257      0.090687653077
C     -0.130679052490      1.051598999390      0.252848558620
C     -1.245699047947      0.691936277703      0.864090474583
H     -1.402654974455     -0.286668980283      1.286188221014
H     -2.063596702167      1.395131174279      0.934782443939
C      0.331512890935     -2.048935027327     -0.101522318599
H      0.312961590010     -3.018920247153      0.377065319985
C     -0.191422008619     -1.876243705558     -1.295637275227
H     -0.166306259460     -0.909112952907     -1.773078511136
H     -0.661667460998     -2.684789514344     -1.835280348838
C      0.081161177210      2.386595903575     -0.372571776743
H      0.300059613951      2.271981974233     -1.433529033754
H     -0.802822854952      3.010829356078     -0.256892478427
H      0.934083177896      2.884848370642      0.085819936853
