17
OptimizedStructure
C      1.467966329147     -2.609722347638     -0.738598998834
H      2.170130158579     -3.371238531183     -0.432266391371
H      1.263427996927     -2.539811639713     -1.799263241956
O     -0.574708622109      2.128752534290     -1.423259119255
C     -0.555395995368      1.680082812813     -0.303995580067
C      0.451949287617      0.643984307288      0.110146894085
H      1.379168922400      0.810741163165     -0.431722299132
H      0.658350163630      0.693723147936      1.178506559840
C      0.883671524733     -1.809018829173      0.127237892148
H      1.104749201959     -1.889952543881      1.183795789070
C     -0.084564809434     -0.735398026260     -0.244662670510
H     -0.285057567709     -0.769716147330     -1.317321090397
H     -1.033237142860     -0.901151055562      0.273797278816
C     -1.538002683123      2.088828807796      0.747349777333
H     -1.957974109206      1.215106719337      1.242477779011
H     -1.016312556044      2.672965994458      1.504386386915
H     -2.334160099140      2.691823633658      0.323391034307
