17
OptimizedStructure
C      0.331749444905     -1.111965754002      0.722352158368
H     -0.715321837954     -1.343900065287      0.507784284799
H      0.660885144646     -1.758252472168      1.539480195640
O      0.471539953293      0.211916393204      1.233697521656
C     -0.403726209349      1.158683977669      0.759634038286
C     -0.969988232202      1.967506688617      1.636500952052
H     -0.795322652753      1.845967120915      2.693411396038
H     -1.590782891858      2.791012946644      1.314200652031
C      1.196313724373     -1.352946481369     -0.470247966161
H      2.204383777671     -0.980112832918     -0.374856434723
C      0.808104058508     -2.003470936993     -1.546746069327
H     -0.201740991165     -2.382753798954     -1.646135204345
H      1.474673452676     -2.202514030670     -2.372620699781
C     -0.584899605955      1.267678589744     -0.714168302972
H     -1.063809635411      0.381127992999     -1.128092825685
H     -1.202690815710      2.134512821705     -0.946642699046
H      0.380633316287      1.377509840863     -1.207550996830
