17
OptimizedStructure
C      0.962468485917     -2.719265011148      0.500566422755
H      0.125103413900     -3.405768142273      0.469210743240
H      1.905471716100     -3.126071286268      0.834381825686
O      1.077275057821      1.630119027777      1.049478849384
C      0.109797199280      1.479529456938      0.344604302975
C     -0.856195490295      0.345918614524      0.547565323043
H     -0.848443393602      0.050590567274      1.593282309227
H     -1.863655821915      0.653907028333      0.275168779244
C      0.836629746524     -1.457927190507      0.146519037685
H      1.678017949765     -0.784062576773      0.199564814756
C     -0.446662230435     -0.845768860384     -0.312402796422
H     -1.238016564619     -1.597940232440     -0.281378196455
H     -0.349106947912     -0.522905360714     -1.353133774330
C     -0.200612753699      2.397890710485     -0.796312238684
H      0.645926851793      3.038231842595     -1.021079024688
H     -0.492018320105      1.840151938782     -1.683866428482
H     -1.045978898520      3.023369473798     -0.512169948932
