17
OptimizedStructure
C      2.210042388355     -1.927535926697     -0.253441223345
H      2.929214878529     -2.619274923196      0.159720371534
H      2.534638470610     -1.351637135718     -1.111199292639
O     -2.664752005898      0.719744855674      0.206022266695
C     -1.506248273646      1.055356605279      0.198222706161
C     -0.431043077905      0.172966271529      0.768782944627
H      0.443938955340      0.747316097675      1.067549842786
H     -0.822283861600     -0.344021927767      1.641949179695
C      0.999628562346     -1.796686184958      0.246875913444
H      0.695045968769     -2.381510495396      1.104805672054
C     -0.033180886613     -0.856674403653     -0.278802254111
H      0.348087544512     -0.356211106632     -1.173435498432
H     -0.929950999875     -1.409180511715     -0.566697947203
C     -1.040324762143      2.343583179118     -0.400889837348
H     -0.682557999906      2.993056602728      0.396948576936
H     -0.204642934989      2.168467373300     -1.076299598864
H     -1.845611965886      2.842241630429     -0.930111821991
