17
OptimizedStructure
C     -0.037537316021     -1.095239912665      0.696600532049
H     -0.983973164510     -0.916510468477      1.211085290212
H      0.566437416221     -1.770550717590      1.304837232059
O      0.706391429859      0.118196198309      0.629397623072
C      0.044639437740      1.266177897607      0.317655881097
C     -1.247497999263      1.399487094127      0.069064495023
H     -1.946030992518      0.579427811783      0.068999049537
H     -1.646332574482      2.379492359297     -0.150971178242
C     -0.256517705664     -1.675272685232     -0.658807975110
H     -0.765979597709     -1.037177726149     -1.362585783768
C      0.143005063801     -2.881618974119     -1.005100246073
H      0.664460284943     -3.526178616975     -0.308881077804
H     -0.035350319974     -3.285778089370     -1.990523406482
C      1.009461604952      2.400977989328      0.297407345015
H      1.784144769321      2.216401560977     -0.445522986418
H      0.502393940480      3.334678114444      0.061194995384
H      1.498285722825      2.493488164706      1.266150210448
