17
OptimizedStructure
C      0.160230069099     -0.745314269400     -1.051209427207
H      0.733376986800     -0.851394763279     -1.973722848592
H     -0.893806745482     -0.923029486987     -1.274375411559
O      0.341625478645      0.609496939764     -0.648770889658
C     -0.567850610016      1.158780906776      0.202171259626
C     -1.638477072590      0.572949525124      0.711825822826
H     -1.912667220473     -0.450280011779      0.516201276179
H     -2.288824461650      1.135147774685      1.366714933553
C      0.664236974349     -1.692598244104     -0.016727494674
H      0.219047261737     -1.596540161652      0.960307692550
C      1.597575688989     -2.592254677843     -0.249736159659
H      2.058126549584     -2.689827454599     -1.224654382475
H      1.940763241412     -3.275718576562      0.512700901894
C     -0.183021153542      2.568472799499      0.491548691835
H     -0.133017757040      3.139956730897     -0.434126351057
H     -0.902047990063      3.035024373416      1.162400949196
H      0.804730760240      2.597128596044      0.949451437221
