17
OptimizedStructure
C      0.388864535802     -2.016069098461      0.507009299314
H      0.365379875238     -3.030346325172      0.878270144158
H      0.216373384453     -1.238145821315      1.237219997131
O     -1.872481756601      0.495109149528     -0.477165204808
C     -0.898504677309      0.908870130847      0.099081331248
C      0.493864202453      0.758715414026     -0.456285866172
H      0.701800151257      1.686612833828     -0.989983382723
H      1.223219600391      0.689519596284      0.349030828447
C      0.594554262464     -1.754930160879     -0.766825227885
H      0.744225581754     -2.572074206931     -1.460281301153
C      0.632947482150     -0.403842046525     -1.407883760429
H      1.567776946541     -0.308584648256     -1.964887964440
H     -0.178065260015     -0.347309339039     -2.135470158729
C     -0.988090265246      1.649961639159      1.398343864596
H     -0.559413665503      1.038385272958      2.190595705365
H     -0.411945041921      2.572002292408      1.353224356818
H     -2.020505355907      1.872125317540      1.646007339261
