17
OptimizedStructure
C      1.250672011309     -2.593108536742     -0.036551455777
H      0.973860158323     -3.498479777618      0.483349395460
H      2.298544838395     -2.484135040554     -0.288229257800
O     -1.924548209762      0.563490977839     -0.695200057004
C     -1.071772316211      1.042667359591      0.010132963183
C      0.397205742769      0.807603476724     -0.217848149611
H      0.773088298278      1.706354407456     -0.708739682225
H      0.913797600993      0.736804666302      0.738905392895
C      0.364735540885     -1.675205771080     -0.360138783442
H     -0.679026367767     -1.796355463464     -0.109894684759
C      0.690424974308     -0.406441497841     -1.074836445190
H      1.743060057059     -0.404251605415     -1.364682851403
H      0.083854956960     -0.335087440465     -1.978066046851
C     -1.398903551854      1.928265380287      1.172401813992
H     -1.231058305062      1.367376479516      2.090877801002
H     -0.746978092745      2.798738847507      1.198811620121
H     -2.436957335877      2.241763537955      1.139708427407
