17
OptimizedStructure
C     -0.373955784455     -1.304189789677     -0.498079968259
H     -0.859363394674     -1.932949035284     -1.249419165618
H     -0.868347420384     -1.504883729667      0.455433699148
O     -0.598373559096      0.037706781383     -0.909066612585
C     -0.888821189743      0.945028340660      0.082879749578
C     -1.913466657225      1.756597085375     -0.104372282253
H     -2.534462968448      1.668438898739     -0.981112238248
H     -2.130867128713      2.549928434412      0.596032475614
C      1.075501033927     -1.665080451975     -0.426438280888
H      1.272051790467     -2.655956919782     -0.039673788744
C      2.057753080194     -0.890322574807     -0.831332709426
H      1.848529002611      0.088071160154     -1.234846990217
H      3.090066994980     -1.203269780989     -0.784795779425
C      0.026762765160      1.013080795982      1.255510525307
H      1.044505741659      1.223183441856      0.930486330750
H     -0.298076332980      1.801847186630      1.933105643870
H      0.050564026720      0.072770156990      1.805689391395
