17
OptimizedStructure
C      0.057905535125     -0.745264606503     -0.752294040600
H      0.707607066071     -0.134758157686     -1.384748703124
H     -0.933163721081     -0.783185137739     -1.211702255984
O     -0.037203760259     -0.166471090122      0.548691879945
C     -0.684892848506      1.041462307745      0.622957478714
C     -1.560311396077      1.216701307400      1.595680872150
H     -1.802219058784      0.411341778347      2.270499141481
H     -2.025738079125      2.178028595376      1.760308737994
C      0.627328083957     -2.121990275755     -0.592453258624
H     -0.004973542905     -2.948923229236     -0.877462880461
C      1.830594566239     -2.335454694912     -0.101204430013
H      2.460813807397     -1.513353441104      0.207147904492
H      2.225525883485     -3.330008932657      0.041242919204
C     -0.291451786396      2.100988329769     -0.346885823014
H     -0.617156091493      1.860477200069     -1.358219396254
H     -0.744778115707      3.048723774855     -0.060571504429
H      0.792113458057      2.221686272155     -0.360986641479
