17
OptimizedStructure
C      1.794439406177     -1.735512479531     -0.189325597038
H      2.609375760593     -2.381356069018     -0.482586227669
H      2.040200509687     -0.921946941152      0.474778838816
O      1.109593542302      1.284842406788     -0.561842594538
C      0.069370669457      1.265349850914      0.046531567254
C     -0.489668205892      0.007881330458      0.662835444340
H      0.182579077724     -0.315439395567      1.456205157922
H     -1.455180684248      0.216668279624      1.117125795702
C      0.581358720022     -1.912306266827     -0.666447203821
H      0.394995863040     -2.720936689975     -1.361811121243
C     -0.647577706976     -1.116780989458     -0.347491244568
H     -1.051263845431     -0.713434457428     -1.280902285750
H     -1.400623674277     -1.814279605211      0.028848839146
C     -0.767689874021      2.491982554699      0.236354191010
H     -0.934330979496      2.666673253011      1.297684181878
H     -0.292893095050      3.360703854620     -0.206397186161
H     -1.742685483612      2.337891364054     -0.223560555278
