17
OptimizedStructure
C     -0.259900611640     -0.794454129393     -1.350624206135
H      0.008473881704     -0.842001110655     -2.408237668729
H     -1.349228054323     -0.840471747820     -1.283325620281
O      0.201720473142      0.470712096984     -0.911235264640
C     -0.359602590954      0.999690824733      0.212952320181
C     -1.266945745116      0.428280005056      0.986047570758
H     -1.648071909946     -0.565877204410      0.825954300866
H     -1.639947031826      0.966295076907      1.846563260549
C      0.360459775542     -1.949268806390     -0.633477286429
H     -0.025477673763     -2.914854986740     -0.931794471985
C      1.317793063077     -1.853193286592      0.262945408021
H      1.704959302254     -0.889165842255      0.553970816140
H      1.745209014252     -2.724314099527      0.736845229547
C      0.197349628740      2.365942383984      0.473570087295
H      0.924400616148      2.621172685838     -0.292298000988
H     -0.594916422159      3.113409417679      0.464796225483
H      0.683724284868      2.408098722602      1.447347300347
