17
OptimizedStructure
C     -0.610573809756     -2.678479016223     -1.393949045231
H     -1.200497951697     -2.288900650305     -2.214313092722
H     -0.575828708851     -3.753386914442     -1.295127053444
O      1.234111350166      0.707077475312      2.119157795548
C      0.495142301486      1.114041891489      1.257018642596
C     -0.552465357472      0.236973014254      0.632945616624
H     -1.448690355130      0.807047016010      0.402098407053
H     -0.820129581247     -0.544937959891      1.337280474074
C      0.033841071786     -1.880924908967     -0.569237518846
H      0.617982186556     -2.282824207661      0.247173494267
C      0.021959574275     -0.390765770516     -0.651970835504
H     -0.554252357476     -0.077443450425     -1.524741272947
H      1.047177676303     -0.042663285872     -0.801091445096
C      0.578226032956      2.505600771475      0.712617322187
H      1.481419645362      3.004043582575      1.049410046337
H      0.538271394735      2.499070534712     -0.374790103497
H     -0.285693111997      3.066471878474      1.067518568602
