17
OptimizedStructure
C     -0.077934509345     -0.886938009372     -1.168939110543
H      0.460839835963     -1.062858975307     -2.100833248105
H     -1.148246787253     -0.965420669626     -1.364751156205
O      0.249801931071      0.458776756379     -0.827726100112
C     -0.495960665830      1.072749017178      0.131455285736
C     -1.516251686877      0.554526183802      0.793266528776
H     -1.868047897285     -0.453285140988      0.649152300349
H     -2.034713671891      1.154420248904      1.528213845492
C      0.367123569922     -1.862147711009     -0.119305061794
H     -0.394743936094     -2.342559246084      0.474505495650
C      1.640318147753     -2.117649562465      0.103956494909
H      2.416009036687     -1.633555073231     -0.473583604239
H      1.965059861213     -2.798900253956      0.876051609814
C      0.007662944638      2.458828896368      0.339659504384
H     -0.035573357736      3.017555787649     -0.594202739025
H     -0.583818507358      2.974941865555      1.093639005703
H      1.048475692422      2.431515886204      0.659440949210
