17
OptimizedStructure
C      0.927082002402     -0.686550245735      0.021928600715
H      0.515406519356     -0.550958151101      1.024800657559
H      2.017510824848     -0.610694618396      0.077055642634
O      0.455736771372      0.332961999484     -0.867018092243
C     -0.330561459414      1.292137454104     -0.272839522850
C     -1.618648316461      1.333955214569     -0.551561577541
H     -2.068976533648      0.592740363023     -1.192847323932
H     -2.249105831303      2.123687214942     -0.166514138802
C      0.516175977660     -2.007796811217     -0.528551033438
H      0.823954436476     -2.190618806419     -1.546363936340
C     -0.183421318921     -2.897209858575      0.144381610295
H     -0.502102947744     -2.714601845362      1.163027810651
H     -0.464822703360     -3.849683528555     -0.280022502013
C      0.394886713691      2.269953201721      0.582398393104
H      1.171994697098      2.762905452894     -0.001257856458
H     -0.286416533322      3.025804951602      0.971109173427
H      0.881307701270      1.773968013022      1.422274095233
