17
OptimizedStructure
C      1.970280440044     -1.688716111633     -0.498910557900
H      2.751724679306     -2.337736531963     -0.864422963000
H      2.298857822247     -0.750009986086     -0.073953381852
O     -1.348451065731      1.157621930051     -1.321731716456
C     -0.854216961073      1.251154865055     -0.226862597537
C     -0.258573545810      0.081236077516      0.513367516571
H      0.809282636982      0.281330064281      0.589307338837
H     -0.634357152884      0.094888996080      1.535484491560
C      0.703250175479     -2.034220681559     -0.583171202533
H      0.451980449503     -2.988229454030     -1.028902619472
C     -0.503945910981     -1.260370510666     -0.150655789850
H     -1.117367400767     -1.084383071788     -1.035880061899
H     -1.095145588631     -1.900201413774      0.507356484280
C     -0.793946876039      2.554395973884      0.510910046575
H     -1.546251472095      2.541354982874      1.298456078078
H      0.173668500963      2.699127452443      0.986174363057
H     -1.006788730513      3.382757419316     -0.156565428459
