17
OptimizedStructure
C     -0.001880893913     -1.128389150251      0.208121810687
H     -0.739825364067     -1.897254184086     -0.036790741015
H     -0.007878008010     -0.972727227313      1.283986045362
O     -0.374383758730      0.068638540117     -0.471805073656
C     -0.717333976928      1.181936264168      0.232548449277
C     -0.793611194678      1.325130833054      1.544642070320
H     -0.587126682509      0.543127401991      2.256608752585
H     -1.084411386682      2.282184095877      1.952545111301
C      1.356565016468     -1.525866908985     -0.250479621710
H      2.129906146591     -0.792155593522     -0.080309338074
C      1.627601140581     -2.677426524815     -0.828752014563
H      0.854312106163     -3.412493994729     -1.012026169485
H      2.626679460305     -2.945328661006     -1.139089545213
C     -1.016724310376      2.283838176325     -0.726444909692
H     -1.829677589827      1.989410359927     -1.388456746065
H     -1.297478709679      3.192409219006     -0.197276084561
H     -0.144731994710      2.484967354241     -1.347021995498
