17
OptimizedStructure
C     -0.122764988608     -1.038879218111      0.471433416325
H     -1.145105345407     -0.827109445740      0.774293646262
H      0.399231270107     -1.507230776350      1.310399654631
O      0.562861133430      0.169214798844      0.148385606889
C     -0.060785569842      1.371702389242      0.283470975520
C     -1.282013578069      1.611078221218      0.729804753923
H     -1.970296476510      0.851049552425      1.060991611297
H     -1.633169487170      2.631523049002      0.777576352799
C     -0.109300603524     -1.921396794858     -0.726339463135
H     -0.570169014340     -1.502932359999     -1.608289183848
C      0.421521614690     -3.126337713772     -0.743517082232
H      0.894814621011     -3.546870613132      0.134569557864
H      0.404450420587     -3.751001535938     -1.624279104499
C      0.870131389974      2.448299813305     -0.161300617758
H      1.156809359836      2.287640387764     -1.199541205225
H      0.404501719105      3.427233323088     -0.065268256131
H      1.779283534730      2.424016923013      0.437609337319
