17
OptimizedStructure
C     -0.191380277799     -0.700939175098     -1.179755602060
H      0.485220065665      0.055257291402     -1.583560426315
H     -0.686231217010     -1.193480451931     -2.019906745955
O     -1.259296355832     -0.113719259670     -0.446486927574
C     -1.017829028622      0.958474587552      0.375654771643
C     -2.066582384466      1.667478671900      0.758545789732
H     -3.056249367639      1.422950004696      0.408974104458
H     -1.955926946521      2.492723749370      1.445784559609
C      0.552172664988     -1.721516229029     -0.383468175609
H     -0.075522691240     -2.382127039221      0.194328802311
C      1.860947846549     -1.862464262237     -0.399987693781
H      2.494284571525     -1.202517778360     -0.980026835510
H      2.363784738853     -2.644214469832      0.149478714010
C      0.371306383880      1.246353705035      0.825981277633
H      1.019317951206      1.511546125931     -0.010096159260
H      0.355183563737      2.084393996237      1.521476582511
H      0.806800482726      0.381800533254      1.323063964158
