17
OptimizedStructure
C      2.205191852222     -0.910264922633      0.305445304520
H      3.211179516013     -1.236675917263      0.089474520335
H      2.114146280611     -0.088448624188      1.002219938266
O     -2.701857216009      0.977584112638      0.280840229048
C     -1.503361900801      0.955380420660      0.150032221009
C     -0.633853709743     -0.025421966154      0.882492681266
H      0.274242647176      0.468099687841      1.217341640808
H     -1.162334556396     -0.394449371935      1.755274559378
C      1.165663724983     -1.497239598624     -0.248238253949
H      1.332832561455     -2.319915869837     -0.931385184727
C     -0.288395898303     -1.178812346365     -0.063478233697
H     -0.708150828192     -0.982410235697     -1.054788714179
H     -0.791260854799     -2.085180316402      0.278151372542
C     -0.772203678877      1.893020969613     -0.760911706565
H     -0.333962514419      2.680460144809     -0.147915929446
H      0.041646787991      1.392173670536     -1.280360242938
H     -1.449522212914      2.352100163000     -1.474194201669
