17
OptimizedStructure
C      0.331521690857     -0.535444759396     -1.056868037528
H      1.021843741247     -0.244484490362     -1.856305435000
H     -0.674315674542     -0.233303886302     -1.362479956491
O      0.709293905188      0.129612721871      0.142689097770
C     -0.180411937132      1.086210275570      0.576284694964
C     -0.906015611845      0.852589658068      1.651891732144
H     -0.854902899256     -0.097653463740      2.160006500234
H     -1.555172961214      1.612755361830      2.064183985239
C      0.365775443066     -2.018380303472     -0.878485844459
H      0.124079189498     -2.578949687178     -1.771511054293
C      0.661702894060     -2.628965301029      0.247598965552
H      0.911009024839     -2.054869999102      1.125547814640
H      0.673658934923     -3.705794995417      0.327112241369
C     -0.166136132425      2.359613159126     -0.192322440185
H     -0.451859147643      2.193989390025     -1.231079071620
H     -0.850112988410      3.085329461290      0.245712875276
H      0.840042528790      2.777746858218     -0.191976067611
