17
OptimizedStructure
C      1.090216954016     -2.479469237619      0.032284581798
H      0.371012985533     -3.226394183193      0.344540175843
H      2.124630714760     -2.789320579752      0.007031986951
O     -0.886470873815      2.560559748077      1.315087977345
C     -0.521682545237      1.699162274812      0.550610724715
C     -0.968908591513      0.273061538681      0.786094707768
H     -0.523818658004     -0.036227212020      1.732244166428
H     -2.039905764193      0.332173433600      0.971487855591
C      0.717774825856     -1.261718262805     -0.302619878736
H      1.457684255902     -0.538933414787     -0.611362412544
C     -0.699537442635     -0.789004792243     -0.270169520664
H     -1.340015240071     -1.646197106006     -0.053836446946
H     -0.996287800592     -0.414034547331     -1.251809427641
C      0.374261149840      2.021822144917     -0.604277239633
H      1.376468524553      1.663186571865     -0.378198338967
H      0.049006002110      1.534905583011     -1.519547102679
H      0.415571503491      3.096428040794     -0.747561808630
