17
OptimizedStructure
C      1.700595932547     -1.916754508677      0.514030164249
H      2.295484340175     -2.741186597119      0.877229723769
H      2.066549951908     -0.928920804608      0.758622446956
O     -2.168617810313      0.644716294818      0.486461781293
C     -1.098306806370      1.117983769226      0.199799934578
C     -0.016528201010      0.347603912074     -0.514380862087
H      0.171034151335      0.860627523071     -1.457104605545
H      0.898487222281      0.454117096673      0.065423914067
C      0.600345914334     -2.124090855059     -0.177822088721
H      0.297367991621     -3.143333728059     -0.380846853852
C     -0.348229488461     -1.114351952077     -0.745850611284
H     -0.445664364972     -1.311629328427     -1.815257966634
H     -1.335631910686     -1.300229386877     -0.319918385863
C     -0.732869948963      2.528713647910      0.550458507691
H     -0.039906822128      2.507613510464      1.390538954747
H     -0.230829560407      3.028262985795     -0.274978370974
H     -1.613280590893      3.090858420871      0.843594317608
