17
OptimizedStructure
C      1.892196898644     -2.022941204485     -0.027800642318
H      2.532772723006     -2.890717213211      0.025649675701
H      2.376777979956     -1.062600859739      0.074871456787
O     -1.571759176676      1.407362856316     -1.390152757958
C     -0.897509460847      1.401998463510     -0.390057481336
C      0.175676705173      0.368042346015     -0.170791449045
H      0.936320979676      0.514133551050     -0.936839151187
H      0.652501155840      0.485237291886      0.800222565974
C      0.593686398391     -2.138202970709     -0.211739028766
H      0.154025326384     -3.122055052561     -0.309411983118
C     -0.398462853026     -1.023850851955     -0.310579970257
H     -0.911797835336     -1.082431546773     -1.272027204155
H     -1.169691647708     -1.178568927500      0.450267558813
C     -1.067946057742      2.405289432627      0.704093663081
H     -1.327801892997      1.890359297069      1.628141004512
H     -0.126792585373      2.924437213551      0.877132864064
H     -1.842196657366      3.124508174911      0.459020879207
