17
OptimizedStructure
C      1.243487712901     -1.271475451058      0.739401703771
H      0.746366701792     -1.768783728711      1.562508686601
H      2.307618381084     -1.132067524406      0.862954065110
O      0.710911047480      0.448886175639      1.327957072451
C     -0.161070015930      0.965226212619      0.544786774005
C     -1.418455096321      0.428895411813      0.424383819670
H     -1.802842340578     -0.188014466377      1.220511170493
H     -2.154624580822      0.890609919277     -0.221145339306
C      0.679988353584     -1.342205612440     -0.526908141910
H      1.256443919049     -1.007227279164     -1.373304796193
C     -0.690139016585     -1.428240533838     -0.634789863196
H     -1.244346392679     -1.974747042232      0.115035504886
H     -1.177499172924     -1.331710085950     -1.596856423420
C      0.318262512597      1.990615252852     -0.425370597409
H      0.952901932627      1.497712387829     -1.166325719973
H     -0.498571006773      2.494210182546     -0.940381648714
H      0.931567061497      2.728316181604      0.087543733133
