17
OptimizedStructure
C      1.938046042509     -1.287182412067     -0.353465928105
H      2.727471102031     -1.164440966836     -1.080347483258
H      2.243790809662     -1.577310030909      0.644747129976
O     -1.390895334981      1.264492119864     -1.496045571064
C     -0.935363466393      1.096621234689     -0.391632985970
C     -1.368659789317     -0.054598504330      0.476141224730
H     -1.355115682832      0.248492906001      1.520170978809
H     -2.391901327419     -0.304921721601      0.214299577707
C      0.671673984929     -1.109110468638     -0.665038519847
H      0.387713234375     -0.818379539311     -1.664600614344
C     -0.462748085662     -1.294799054618      0.292217365481
H     -1.079370337432     -2.116329852639     -0.075726141443
H     -0.063908839778     -1.609553182227      1.259069558345
C      0.086186592420      2.010804760288      0.207159997401
H     -0.377141302920      2.565273928616      1.022870276880
H      0.911548788439      1.436655489207      0.621392996005
H      0.458673612370      2.714285294511     -0.531211861302
