17
OptimizedStructure
C      2.107694453922     -2.053241876125     -0.357307629322
H      2.474760638264     -3.068021156003     -0.312538609540
H      2.855897391234     -1.270414124344     -0.365289967445
O     -1.961131316489      1.481840626661      1.825636974852
C     -1.274473303697      1.231423597356      0.864453322491
C     -0.598862175458     -0.117033600942      0.762643486453
H      0.001763366142     -0.233202014472      1.664544338221
H     -1.387625543071     -0.865722798235      0.841159541136
C      0.821544863295     -1.778401813903     -0.405593639106
H      0.090411454071     -2.576321496133     -0.391376467259
C      0.255961580539     -0.398371802020     -0.457904803188
H      1.072408865541      0.323310196365     -0.522402831625
H     -0.349406605140     -0.291801403932     -1.360196005430
C     -1.070408247025      2.223498993214     -0.235812061930
H     -0.011061020028      2.443630767660     -0.349830534297
H     -1.415881844654      1.810908535620     -1.181517333301
H     -1.611592557447      3.137919369234     -0.018667780710
