17
OptimizedStructure
C      0.314404498390     -0.986170195698      0.556595839492
H     -0.679599294259     -1.090647142477      0.115423810171
H      0.304464467341     -1.477767477691      1.534958124803
O      0.644950103944      0.390558390464      0.762168195409
C     -0.421321500532      1.252038904308      0.641500170356
C     -0.934802655433      1.810303457422      1.719913643912
H     -0.566734705876      1.560148348645      2.702647334355
H     -1.718283066988      2.551865881130      1.646934684243
C      1.346288930368     -1.592162440778     -0.329096400537
H      2.364595275957     -1.432712109311     -0.010251607108
C      1.070121443548     -2.267601280367     -1.424863595304
H      0.049936635198     -2.426182778158     -1.752258544244
H      1.841253549753     -2.705499562766     -2.041188945622
C     -0.832348913561      1.547002947122     -0.757689955012
H     -1.136869794425      0.640621086919     -1.281381381713
H     -1.657585679671      2.258024930815     -0.779728240401
H      0.011530706249      1.968179040421     -1.303683132800
