17
OptimizedStructure
C      0.044285362767     -0.925506278790      0.408886991957
H     -0.508701174135     -1.532910196676      1.132140941965
H      0.874344519269     -0.446779154527      0.933434260295
O     -0.841081093366      0.064455115498     -0.120416536630
C     -0.573583739311      1.354652067232      0.274806760223
C     -1.406795591850      1.968590048455      1.091705189518
H     -2.263297155444      1.453705014907      1.497699996583
H     -1.270453223903      3.009108287842      1.352092573708
C      0.549507697396     -1.768604545392     -0.709377873060
H      1.079457200361     -1.236742926662     -1.485136501485
C      0.365411044567     -3.070278626272     -0.785458906630
H     -0.178440989699     -3.607785175825     -0.019245548654
H      0.748238192630     -3.659976321340     -1.605243529289
C      0.616726374154      1.980882808088     -0.362280210826
H      0.498329040755      1.972558575686     -1.445745168352
H      0.736198181351      3.011452907532     -0.030165350665
H      1.529855354457      1.433178400245     -0.127697088660
