17
OptimizedStructure
C      0.404509269916     -0.629628906311     -1.139058239937
H      1.372504621423     -0.321396780038     -0.727319268598
H      0.524159380602     -0.805618658617     -2.211165356993
O     -0.540929004052      0.433203107135     -1.048318795838
C     -0.507653735887      1.138717180996      0.136196324340
C     -0.957568418224      0.643839118187      1.272701104212
H     -1.334652343408     -0.362736945817      1.343061763365
H     -0.946989884092      1.242198312227      2.174030212872
C     -0.069464500558     -1.880516746427     -0.478771836479
H     -1.063050541792     -2.193314228626     -0.760196075020
C      0.657232099374     -2.588101903469      0.360773264675
H      1.653892649604     -2.275215910557      0.646333640384
H      0.303963476403     -3.511602695648      0.795568476650
C      0.023778282324      2.514625457037     -0.046126802779
H     -0.562085951415      3.036443452859     -0.801507306248
H     -0.012382563789      3.079410772466      0.884520527822
H      1.054737163572      2.479695374603     -0.400721632427
