17
OptimizedStructure
C      0.452599761610     -0.579151599363     -1.067977771842
H      1.129172941459     -0.598771918937     -1.923403523394
H     -0.547479837178     -0.841714782479     -1.422582208234
O      0.464285316068      0.769728611792     -0.625528504547
C     -0.537279436566      1.169119972604      0.207457943497
C     -1.512455714927      0.415616599424      0.687073547173
H     -1.608670945423     -0.636976432108      0.480203955537
H     -2.255345773943      0.858724136963      1.335411770729
C      0.920581335626     -1.532627315786     -0.007563117149
H      1.015643661366     -1.108337670564      0.978117183458
C      1.203645216694     -2.797817725319     -0.236230586389
H      1.112653311158     -3.230956059934     -1.224433530105
H      1.536446069524     -3.461052144927      0.547091082589
C     -0.379793155570      2.617904364322      0.513891082288
H     -0.408873772542      3.200412911662     -0.405826077309
H     -1.170872395287      2.959235737411      1.179053691974
H      0.585743417932      2.796663315238      0.985245061723
