17
OptimizedStructure
C     -0.926057551047     -1.579752611124     -1.743531824532
H     -0.451421965187     -0.914050315363     -2.453700621567
H     -1.773373864621     -2.142352972619     -2.106824464018
O      1.758812633091      1.773519510894      1.446329186607
C      0.736225610344      1.332521799589      0.984052355940
C      0.279101774487     -0.073567372080      1.246498450185
H     -0.801425111589     -0.095056222999      1.373829169122
H      0.738321413740     -0.436938254402      2.159853553908
C     -0.479095738119     -1.705603890766     -0.511497991737
H     -0.964886344183     -2.380175148211      0.180802968364
C      0.681167513266     -0.949002610958      0.044535160236
H      1.117905547916     -0.331564053152     -0.744410050782
H      1.460414983913     -1.643935424731      0.358118779920
C     -0.162021567254      2.134972534982      0.093762665661
H      0.351304448748      3.009608800686     -0.293397852825
H     -0.553039004411      1.532235695033     -0.722982068617
H     -1.011932779096      2.469140535220      0.688562584134
