17
OptimizedStructure
C     -0.194771688962     -0.875687460795     -1.244875839404
H      0.406227903509     -0.801694918844     -2.158071551437
H     -0.989870066235     -1.606355132726     -1.423075630164
O     -0.827024949636      0.399858295759     -1.062451601795
C     -0.525853673333      1.124054683448      0.067270596277
C     -1.140541839895      0.894751510282      1.211033108682
H     -1.850965729533      0.089228915530      1.314265800782
H     -0.942227544403      1.505382918303      2.081707385136
C      0.667342982166     -1.327669141726     -0.117878587806
H      1.494636366619     -0.683669223282      0.136121484266
C      0.484610048322     -2.464268086062      0.522212378423
H     -0.341835080329     -3.121153292895      0.282183824717
H      1.150018492672     -2.796965314178      1.305475958830
C      0.462972229237      2.208378189010     -0.173067639497
H      0.107461365602      2.858068436884     -0.971854370800
H      0.620690886993      2.805050457294      0.724963896953
H      1.419130297203      1.792689163995     -0.493959213165
