17
OptimizedStructure
C      0.810456800808     -2.197368337065      0.401852349059
H      0.538523487193     -3.165829268995      0.793222414209
H      1.531389969436     -1.635838391042      0.982812162216
O     -1.877311906455      0.583076534977     -0.609288165283
C     -0.945754736638      0.980969399454      0.043815846596
C      0.486241590304      0.746127691236     -0.359712567525
H      0.836765640995      1.672985538896     -0.815657674442
H      1.096608726869      0.583924062803      0.526603758614
C      0.298091080979     -1.734848205407     -0.719858314602
H     -0.416882122881     -2.332050174860     -1.266218081629
C      0.633575862561     -0.401337164704     -1.332474049640
H      1.655749968788     -0.418486659152     -1.716676211958
H     -0.030676907350     -0.215112439104     -2.174034363589
C     -1.127302148004      1.751662812382      1.314468010098
H     -0.890535968172      1.092509374617      2.148687630944
H     -0.446523398962      2.598884422613      1.362980004534
H     -2.152415939470      2.090730803351      1.419477252398
