17
OptimizedStructure
C      0.022773087658     -2.486274588328     -1.406105970852
H      0.213878793412     -2.734863321505     -2.439491054357
H     -0.371603259511     -3.280159789087     -0.783727350313
O     -0.725563280733      1.949283607476     -1.094280300218
C     -0.360531983351      1.514702377619     -0.029482520982
C     -0.969239050769      0.286641127805      0.582735977991
H     -1.888092050768      0.042751897103      0.057061568187
H     -1.203102398756      0.481118255064      1.628031774248
C      0.257744762707     -1.284207869373     -0.924683379925
H      0.636274206094     -0.501633186881     -1.566253585665
C     -0.000294257937     -0.885548186035      0.492037692876
H     -0.410831960182     -1.736199000845      1.040194683546
H      0.941512337251     -0.611647927038      0.975012808239
C      0.752288708749      2.171328372827      0.737560447789
H      0.488390139620      3.211668147282      0.911404078874
H      0.961767108110      1.692065309082      1.689956602003
H      1.654629098407      2.170974774832      0.130028528559
