17
OptimizedStructure
C      1.862355762887     -1.116572907961      0.093465579201
H      2.851563590270     -1.142146315020     -0.337738418139
H      1.808477011774     -0.865012258491      1.145011583935
O     -1.690918150268      1.034473822653     -1.308762390769
C     -0.989040385153      1.043564201153     -0.327765893446
C     -0.988802116233     -0.111800424609      0.642131145631
H     -0.306709396254      0.063480721961      1.470350942900
H     -1.994470918040     -0.207802988976      1.046340724907
C      0.788010808846     -1.389556161655     -0.618409035290
H      0.892907042760     -1.645131840596     -1.662792301953
C     -0.621318952359     -1.391790841347     -0.085276701000
H     -1.323230214023     -1.515037099377     -0.908417689985
H     -0.756013692143     -2.240520793458      0.588850446729
C     -0.062847818171      2.169858418062     -0.003763121374
H     -0.282556527546      2.557147448277      0.990128731483
H      0.956776970321      1.788541564978      0.010820010478
H     -0.144183016667      2.968305454406     -0.734173613308
