17
OptimizedStructure
C     -0.781884047514     -1.101589360734      0.018152741828
H     -1.601161788783     -0.665347848295     -0.556490815196
H     -1.177348005960     -1.942395185499      0.590718984548
O     -0.331067807588     -0.177391919311      1.011950465314
C     -0.327288937875      1.153167072866      0.676516790776
C     -0.771661370113      2.016334401346      1.572000032177
H     -1.178626090756      1.677455090343      2.511088251081
H     -0.703276447731      3.081012830858      1.401084108994
C      0.331666396328     -1.572139865302     -0.872649930540
H      0.329951951497     -1.234522902041     -1.897306967076
C      1.298476629010     -2.351584646567     -0.432552092191
H      1.318282335206     -2.686002706452      0.595550868352
H      2.114422538455     -2.672466180934     -1.062927963391
C      0.256270576157      1.543165887091     -0.636446236700
H     -0.341009697156      1.167136721869     -1.467261825616
H      0.302739422653      2.628928350168     -0.712696463143
H      1.261514344171      1.136240260594     -0.738729949218
