17
OptimizedStructure
C      0.442733528821     -2.742813178009     -1.129715104126
H      0.684724342911     -2.754219071128     -2.184554926971
H      0.566181787921     -3.673881295079     -0.597675137003
O      1.638186449070      0.887583174677      0.552573612650
C      0.475199410962      1.163362131066      0.705643944654
C     -0.589461235041      0.771644895454     -0.283740496977
H     -0.828901742299      1.673782720816     -0.847504134159
H     -1.498902876438      0.488286078322      0.245507124739
C      0.027541049100     -1.647403538626     -0.529427802536
H     -0.195323678068     -1.662791207024      0.529196387580
C     -0.153752502139     -0.326449184610     -1.224396745207
H     -0.890249299730     -0.427819561322     -2.024160434588
H      0.788111406728     -0.029393836738     -1.686012679465
C     -0.015757999781      1.936555471545      1.891441877303
H      0.812938875770      2.382232669432      2.431252034636
H     -0.723017408174      2.707209726799      1.592587735051
H     -0.540250109612      1.254114004426      2.558984744420
