17
OptimizedStructure
C     -0.428522648785     -1.523833215999     -0.289166057790
H     -0.932389412728     -2.250725840435     -0.930040688020
H     -0.573087033774     -1.858984155794      0.740722092298
O     -1.116618691938     -0.311821351233     -0.532704777387
C     -0.829527642921      0.811594130750      0.204624584020
C     -1.194307134679      1.971604346912     -0.315680991451
H     -1.658513762050      2.023261632300     -1.286350087636
H     -1.060984564987      2.889094417484      0.237870876131
C      1.026920668412     -1.498059673857     -0.625734268617
H      1.554333067260     -2.408293893559     -0.372159081506
C      1.653901771996     -0.498504446787     -1.207743786354
H      1.130306874955      0.405784482858     -1.472483465189
H      2.707087368951     -0.550123734263     -1.442388606721
C     -0.193664715491      0.707847088193      1.557607106288
H      0.731618047474      1.283724937655      1.583714764108
H     -0.860615525735      1.120984251930      2.314373718747
H      0.044063334039     -0.313548976156      1.835538669080
