17
OptimizedStructure
C     -0.451591584079     -1.044531258925      0.351207649462
H     -1.427507413379     -0.715692191933     -0.017868484455
H     -0.610605647708     -1.817674139856      1.107568115777
O      0.203323065489      0.042170588109      1.010614437921
C     -0.209392847093      1.298738539317      0.625769625359
C     -1.166603105404      1.911161661989      1.294676825326
H     -1.672738268443      1.424175998063      2.113773227031
H     -1.462159671340      2.921698858441      1.049153531031
C      0.388160822812     -1.587725800294     -0.756261299900
H      0.603488894594     -0.910752912821     -1.567459669632
C      0.866734265101     -2.814909017710     -0.767049520675
H      0.668791484840     -3.503428934279      0.044549811974
H      1.469911968918     -3.192415935765     -1.579655626792
C      0.549851472126      1.888272065694     -0.509005142295
H      0.354555718270      1.344218899965     -1.433226019991
H      0.277068637904      2.932633995862     -0.658211972558
H      1.618712207392      1.824059584143     -0.308575487582
