17
OptimizedStructure
C      0.882536354033     -2.341639195822      0.075558244844
H      1.032653533067     -3.410227072313      0.128679420714
H      1.027052282631     -1.789305843161      0.990634707898
O     -1.083527005548     -0.307020344815      1.389027774254
C     -0.628864141798      0.679368036745      0.866646640003
C      0.522806435934      0.628318081483     -0.105274677237
H      0.730987668555      1.625914412225     -0.484284271459
H      1.409379855233      0.289038279274      0.428359046869
C      0.492836953817     -1.764526746959     -1.040480031468
H      0.323263407784     -2.369612057556     -1.922104622470
C      0.257230589762     -0.303782667337     -1.276265212225
H      0.895633628798      0.000471227995     -2.109983132136
H     -0.772224430400     -0.170091022734     -1.621600035680
C     -1.176604024462      2.047383582304      1.130928630479
H     -1.980663741599      2.012006361798      1.857821632255
H     -0.384510945991      2.700571810265      1.492371373140
H     -1.547986419816      2.473133158608      0.199964512220
