17
OptimizedStructure
C     -0.249975770777     -0.848817730074     -1.288536410512
H     -0.209921445936     -0.888577093339     -2.376664560583
H     -1.293221390019     -0.931196499791     -0.985588402232
O      0.255508991148      0.443579040898     -0.951579247641
C     -0.256044496478      1.100313314713      0.124211430288
C     -1.212647726581      0.691797853470      0.940783872286
H     -1.708304950616     -0.261177440944      0.859112753905
H     -1.531655639281      1.337891950062      1.745906603049
C      0.590584512273     -1.943374047494     -0.697525324076
H      1.163703628583     -2.530830160496     -1.399875635965
C      0.687773086310     -2.201232736591      0.592308703993
H      0.150999447612     -1.628627820988      1.331171264871
H      1.332893264030     -2.984275912059      0.963168775798
C      0.433980220989      2.414139439400      0.265168841245
H      0.309900235298      3.000743156901     -0.643856555882
H      0.034850008100      2.972616372608      1.109715314691
H      1.501578025346      2.257028313724      0.412078576765
