17
OptimizedStructure
C     -0.266455026857     -0.952678166376     -1.049314091248
H     -0.373758396705     -0.881944243163     -2.136123390244
H     -1.246464662331     -1.184979653335     -0.637448698703
O      0.200390873828      0.301071480374     -0.578126140788
C     -0.578006246867      1.058710184225      0.244329719048
C     -1.829173152174      0.839056639685      0.609617885663
H     -2.417161601067     -0.005313160893      0.290281977721
H     -2.314085544445      1.541271758052      1.271911410705
C      0.689833113571     -2.044004531110     -0.698356929407
H      0.415256494123     -3.014086444509     -1.090196802624
C      1.778607613210     -1.888198237265      0.022336135028
H      2.048485553604     -0.915679406053      0.402320091787
H      2.434095262195     -2.715171398091      0.250856652772
C      0.208953440067      2.242940986783      0.693213320412
H      0.548945293298      2.812238159052     -0.170434282431
H     -0.391530378168      2.887191967588      1.332311849987
H      1.092067364718      1.919574065039      1.242821292322
