17
OptimizedStructure
C     -0.305903976101     -0.858291991145      0.132049757855
H     -1.275290700959     -0.790029392902      0.640102634034
H      0.479959850869     -0.898653048414      0.893286422479
O     -0.141426923276      0.276623975271     -0.712669685215
C     -0.207439613486      1.479284278946     -0.042808581867
C     -1.298660184607      2.213284829515     -0.134368646293
H     -2.159697608268      1.862166023439     -0.681995802234
H     -1.353019671810      3.194351898203      0.316784728456
C     -0.253724273418     -2.070008790899     -0.730043031058
H     -0.933359553052     -2.059875131001     -1.568061945359
C      0.548682643337     -3.090651885796     -0.512069711591
H      1.240312983172     -3.100545780845      0.320884011519
H      0.550050845501     -3.965669442712     -1.144885386484
C      1.034777075205      1.877683107016      0.671642753917
H      1.878259344155      1.853712434481     -0.017667282075
H      0.938832838600      2.883136288811      1.079612498602
H      1.257646924136      1.193482628033      1.490207265314
