17
OptimizedStructure
C      0.927961007389     -1.030573538340      0.656724406074
H      0.655443715969     -1.793249692377      1.392843453302
H      2.015343492097     -1.061738759625      0.525461784587
O      0.618699483432      0.245319121378      1.236806293180
C     -0.175462544368      1.113072196042      0.524241864248
C     -1.490329555959      1.019289716079      0.554962547740
H     -1.983292265902      0.219831031763      1.086073949387
H     -2.111902557694      1.739468204025      0.039925732604
C      0.261995294575     -1.318689794912     -0.643710383975
H      0.472309362558     -0.631691946050     -1.448364485961
C     -0.508315518645     -2.367934630842     -0.845382036968
H     -0.732033534393     -3.065916469527     -0.048579028473
H     -0.943630198057     -2.585306929602     -1.809854998431
C      0.592740487345      2.176964602137     -0.175253416738
H      1.259946676712      1.742437568720     -0.920927056207
H     -0.072702884508      2.885994002095     -0.667001360340
H      1.213229539450      2.712725319034      0.542032735969
