17
OptimizedStructure
C      0.668755672682     -0.917752486480      0.669649236374
H      0.895154519821     -1.649774628111      1.446137414586
H      1.619341821203     -0.536071838486      0.288846836632
O     -0.044001642537      0.111412717019      1.342227271203
C     -0.399592047465      1.209595614461      0.598857367577
C     -1.579276529342      1.755620239320      0.833434361933
H     -2.259726468559      1.314208350009      1.543889931804
H     -1.872096696305      2.676780399565      0.350550201770
C     -0.131789789413     -1.545437970650     -0.434387556026
H     -1.048020766226     -1.032240645766     -0.679198728240
C      0.229872263713     -2.638091687694     -1.073255950792
H      1.145002939474     -3.162616715914     -0.828614832344
H     -0.365726022384     -3.061614816822     -1.867145423945
C      0.595356740266      1.759202169558     -0.363359257813
H      0.751391233364      1.085261302560     -1.204929348182
H      0.239686148129      2.712743456788     -0.750708207771
H      1.555668623577      1.918776540642      0.128006683233
