17
OptimizedStructure
C     -0.394133738417     -0.831336939444     -0.944176172257
H      0.316793472320     -0.399772895456     -1.653146631750
H     -1.046745305879     -1.505101024562     -1.501119289795
O     -1.261948256859      0.174428110846     -0.439299415614
C     -0.680656818053      1.204985643979      0.257192386387
C     -1.322206564848      1.673230824256      1.312649293007
H     -2.241413199096      1.218554430653      1.645714871071
H     -0.963383633083      2.545061894457      1.840488115498
C      0.325909940606     -1.570626555161      0.146120677343
H      0.226347376417     -1.139416999837      1.129445337780
C      1.032033534453     -2.663936446321     -0.051129777291
H      1.131133671721     -3.106518339368     -1.034358556659
H      1.543001208724     -3.169296045720      0.753788278701
C      0.590350837638      1.778177058451     -0.266108559541
H      0.489765143318      2.032584708232     -1.321693491854
H      0.837856833700      2.682354244233      0.287950370679
H      1.417295497340      1.076628330764     -0.162317435704
