17
OptimizedStructure
C     -0.807010711116     -0.886001359756     -0.517206359400
H     -1.701494661537     -0.956333373779     -1.142184697960
H     -1.102480859751     -0.983087983911      0.524295177662
O     -0.217901754648      0.388466215349     -0.776186708627
C     -0.099671054333      1.303029708878      0.225078941900
C     -0.568541467581      1.225830101662      1.458808295730
H     -1.128640695692      0.391179255488      1.846504906846
H     -0.391297724455      2.045253006317      2.140203169993
C      0.181911380938     -1.939162509583     -0.877856925814
H      0.582402760057     -1.869031920074     -1.877514485340
C      0.564856867739     -2.893537924737     -0.055566328542
H      0.172626300623     -2.965672454249      0.950992658854
H      1.277964791325     -3.651213061782     -0.345093621989
C      0.663772216349      2.478228728998     -0.284716682242
H      0.156573611323      2.905079005131     -1.148700057227
H      0.760618357128      3.240775263975      0.485640395676
H      1.656312643631      2.166199302072     -0.606497679520
