17
OptimizedStructure
C     -0.569245875687     -1.056211351128     -0.269782363789
H     -0.613071754726     -0.759091184369     -1.322007393046
H     -1.293858967244     -1.856028494585     -0.105199997327
O     -0.987781567581      0.024160373085      0.563545208494
C     -0.420887837361      1.237765543590      0.253822527582
C      0.413116126622      1.794648772440      1.111060199196
H      0.699421604810      1.283320159994      2.015817430224
H      0.803053783681      2.789349171073      0.942783922266
C      0.805249218754     -1.513219404593      0.082505593758
H      1.575486736809     -0.761239562836      0.008945682247
C      1.091354174146     -2.739305521964      0.468070606625
H      0.323445851241     -3.497578727442      0.555108029194
H      2.098231412286     -3.047882730286      0.708365906737
C     -0.886264190073      1.891876064377     -1.011729189364
H     -1.518938619085      1.222211594453     -1.588957349851
H     -1.471716317465      2.780779533894     -0.779009575476
H     -0.047593779128      2.206445764295     -1.633339237468
