17
OptimizedStructure
C      1.720195229734     -0.938526253974     -0.885201955354
H      2.764282145287     -1.131085881448     -1.086088594020
H      1.266380445799     -0.123441208353     -1.427331882831
O     -1.247930059883      0.617861952691     -1.439297336416
C     -0.854329564131      0.909836550996     -0.337191216515
C     -0.754820108845     -0.100837362485      0.775562489086
H     -0.042495140259      0.225946702155      1.531440140320
H     -1.739425214770     -0.104244368697      1.245383795448
C      1.035210962450     -1.683027797577     -0.040800426004
H      1.527247210798     -2.504888350417      0.460982049740
C     -0.421525715521     -1.498367061047      0.292061990587
H     -1.033370843578     -1.698045176462     -0.588454788168
H     -0.708392914467     -2.216652421450      1.059559738323
C     -0.463336575454      2.305459197752      0.032915133377
H     -0.936743830751      2.601147086067      0.967079269220
H      0.613857768927      2.332418941896      0.192137501274
H     -0.724803795338      3.006445450351     -0.752755908066
