17
OptimizedStructure
C      0.483710415043     -1.032936134926      0.791005672182
H     -0.574729894232     -1.314141952535      0.806276354019
H      0.995706082134     -1.584792413282      1.583388430068
O      0.644649915983      0.340207992132      1.141995493533
C     -0.350086838865      1.179593098320      0.689149128873
C     -1.198105884347      1.688923750679      1.561448173572
H     -1.154896176571      1.412603229158      2.603267549138
H     -1.940938474564      2.414378411779      1.260557642161
C      1.109343373010     -1.371383509784     -0.521652228851
H      2.102811409249     -0.975120493385     -0.662786241357
C      0.540526817854     -2.127697216131     -1.437052700245
H     -0.455498928035     -2.530069173767     -1.298668468792
H      1.039017550777     -2.394238897250     -2.357077121144
C     -0.321911568201      1.509950390840     -0.761245132012
H     -0.521972368671      0.629811968143     -1.369217453950
H     -1.063440589981      2.274633639358     -0.992077265916
H      0.665815159418      1.880277310651     -1.037311831279
