17
OptimizedStructure
C      0.119308043990     -0.829890943829      0.070644789592
H     -0.428997880411     -1.045319074023      0.994986037795
H      1.151929426401     -0.587599380779      0.346916883771
O     -0.483742383065      0.270873506268     -0.596629928053
C     -0.486430069407      1.427884152647      0.154635126191
C     -1.545730073575      1.745096596244      0.871637976947
H     -2.400776722468      1.088449693778      0.921150052709
H     -1.593563782644      2.677620593210      1.416669286077
C      0.086745011331     -2.005945719455     -0.855798152580
H     -0.358534420980     -1.798256933311     -1.815274270089
C      0.551371626696     -3.198549902544     -0.549663657229
H      0.996901458250     -3.406465610382      0.415027202941
H      0.509298059764     -4.023356387621     -1.243831517132
C      0.733748187132      2.263157266634      0.002972086140
H      0.881721508562      2.507981910047     -1.048348063226
H      0.646442294211      3.187508042694      0.572798852838
H      1.620309716214      1.726812190420      0.342107293309
