17
OptimizedStructure
C      1.690775269894     -2.007587210805     -0.814653375215
H      2.136915687141     -2.921591565147     -1.176923601337
H      2.202618364977     -1.092667090632     -1.076824901372
O     -0.319233731295      1.568483203911     -1.659563665965
C     -0.436077111195      1.422169956315     -0.468345057439
C      0.471769670086      0.513964395201      0.311654460185
H      1.412597714003      0.426534330124     -0.219371282344
H      0.674754856601      0.925681496507      1.297240115488
C      0.578999204656     -2.027444683729     -0.111961579366
H      0.108144974747     -2.979141887573      0.098915658548
C     -0.188821428169     -0.862640888171      0.442083664260
H     -1.158675741387     -0.856347336300     -0.065014594150
H     -0.406869631453     -1.073091387393      1.491648713052
C     -1.502714470159      2.106760566178      0.328264203721
H     -1.994120435841      1.406335193212      1.000584433855
H     -1.034946798318      2.874910791057      0.943026854498
H     -2.235116394289      2.575672117247     -0.320760046419
