17
OptimizedStructure
C      0.127259865283     -2.702407594856     -1.090337461108
H      0.389210231418     -2.636944893497     -2.138595273953
H     -0.162523589072     -3.677121551771     -0.726048412639
O      0.272024379844      2.913970713222     -0.118032179176
C     -0.105504960937      1.858431282220      0.326002513918
C     -0.581708544247      0.744104347450     -0.561791145100
H     -0.880970340838      1.157194283049     -1.519141168288
H     -1.446292004893      0.253000984214     -0.119385541992
C      0.169684826621     -1.646531676703     -0.305724891408
H     -0.098391319630     -1.735504992605      0.739244356991
C      0.556456022845     -0.276067190199     -0.755181514069
H      0.847809733181     -0.306569557773     -1.805408462342
H      1.439090546486      0.051579324578     -0.199939324512
C     -0.113320312816      1.558347341920      1.793387247608
H      0.458041180694      2.298099781318      2.344918528702
H     -1.145420154167      1.584489679976      2.141729166170
H      0.274554440227      0.561929719458      1.994303561198
