17
OptimizedStructure
C      1.654120520061     -1.000981102720     -1.181469918173
H      2.710457953159     -0.799106261221     -1.287206093065
H      1.092934707167     -1.132990494833     -2.097670288242
O     -1.922779785241      1.056725793895     -0.946283273534
C     -1.119963896182      0.968791792087     -0.048807326743
C     -1.122040778682     -0.222066349216      0.870704951151
H     -0.660176745861      0.007177925350      1.828999838348
H     -2.151188493401     -0.524590801978      1.041240840755
C      1.072391730058     -1.087638861624     -0.003925840501
H      1.648284034991     -0.948377245408      0.902071073971
C     -0.381395949902     -1.368336837619      0.194620031997
H     -0.855135753546     -1.564632167778     -0.769412969402
H     -0.495428128513     -2.263447308556      0.809767454929
C     -0.062800518428      2.014565252988      0.153500780339
H     -0.537188530343      2.990444614293      0.227803980949
H      0.552640713787      1.841888552080      1.031849368800
H      0.577268920877      2.032573500261     -0.725782611578
