17
OptimizedStructure
C     -0.073381770800     -1.877638539204     -1.555562698093
H      0.386411785415     -2.169243674288     -2.487664010296
H     -1.144952759338     -2.012644977497     -1.487877482063
O     -1.023679750229      1.788958733217     -1.105894077370
C     -0.493651337274      1.364570957416     -0.109323230736
C     -1.014805020135      0.143337730850      0.600209522944
H     -1.859979597276     -0.238734262834      0.035469010661
H     -1.374624446090      0.442714013383      1.584215567424
C      0.628464760924     -1.373637004458     -0.561990702201
H      1.696867699816     -1.251527340765     -0.670816270007
C      0.038531790442     -0.941826469284      0.755822974798
H     -0.423250348649     -1.798383443292      1.250996142089
H      0.830060232390     -0.589170662686      1.417129571649
C      0.720545554163      2.016189534066      0.480898415570
H      0.841787400770      3.017680577416      0.081305966392
H      0.671952708967      2.051670964715      1.567553485400
H      1.593703096905      1.427683863243      0.205527813838
