17
OptimizedStructure
C      0.357586890323     -1.730817792963     -2.167905028658
H      1.348974659570     -1.345734761413     -2.369898740564
H     -0.177806504360     -2.148901981162     -3.007792490819
O     -0.718076423703      1.257117767037     -0.934583630740
C     -0.415651452678      1.216180113730      0.230721287803
C     -0.275557199297     -0.080305893075      0.987437849114
H     -1.283011590316     -0.459425137273      1.163198404074
H      0.176108493968      0.099822377126      1.960478761849
C     -0.169711366337     -1.674903498185     -0.963963278261
H     -1.169573528147     -2.049990733984     -0.786421650409
C      0.528630213128     -1.129076956807      0.237154061746
H      1.494960714548     -0.713121986945     -0.059567360906
H      0.728395172534     -1.950448116347      0.930253519510
C     -0.161246246924      2.452717951192      1.035927932487
H     -0.360276542329      3.345176182685      0.452797820385
H     -0.781517667300      2.451919189659      1.930249534295
H      0.877772377319      2.459793276726      1.361913009094
