17
OptimizedStructure
C      0.810581356042     -2.819026376567      0.847827161052
H     -0.109549867268     -3.363590598503      1.023304008809
H      1.716775431845     -3.276810670205      1.216027719889
O      1.495527067390      1.281399022348     -0.206417800543
C      0.298889016348      1.432935547885     -0.184113770360
C     -0.645727599032      0.372945196648      0.323850506729
H     -0.510190218159      0.297199122278      1.402379715383
H     -1.675035321593      0.675354849139      0.144587851096
C      0.823473644378     -1.666146298550      0.212960604387
H      1.741849518825     -1.126992575331      0.049746525410
C     -0.402942567032     -0.992436776045     -0.308985967402
H     -1.270896997487     -1.627370523040     -0.115909926664
H     -0.321140147619     -0.871067351349     -1.392542896841
C     -0.353836827634      2.691472432527     -0.662956804231
H     -0.998622049829      2.461958529703     -1.510145165871
H     -0.985183633106      3.103963513481      0.121898330132
H      0.386029193931      3.426212955579     -0.961510090975
