17
OptimizedStructure
C     -0.750360338704     -1.143380886634      0.484420985419
H     -1.647944967871     -0.719606250429      0.024887962848
H     -1.077480819965     -1.773898794662      1.317048020657
O      0.052368745265     -0.108444511271      1.039269772164
C     -0.199824627843      1.151721749575      0.536920071396
C     -1.160659929605      1.895041787930      1.049568889255
H     -1.795571587400      1.522380147525      1.838340757113
H     -1.334797416116      2.901943778265      0.697426269885
C     -0.013140015198     -1.990352679350     -0.503935383958
H     -0.624450813694     -2.738391188239     -0.990536837302
C      1.272492605964     -1.897007174419     -0.763274816916
H      1.876950206908     -1.159800271635     -0.259739153520
H      1.761904463852     -2.548709701172     -1.471725370127
C      0.727099479592      1.576121022612     -0.544444321970
H      0.635691911418      0.915975997342     -1.406030155483
H      0.520496031477      2.600119914586     -0.854681232670
H      1.757227071919      1.516287059976     -0.193515456791
