17
OptimizedStructure
C     -0.088849818145     -2.006159550379     -2.136687799341
H      0.642841105190     -1.419657071352     -2.676512027510
H     -0.728227720607     -2.646484098419     -2.727334159251
O      1.076276720063      1.690302529655     -0.479938300842
C      0.282545561514      1.432903912294      0.389172679133
C     -0.147394372945      0.028114224787      0.727709487948
H     -1.197492731871     -0.039545203648      0.439269487338
H     -0.129287918109     -0.085586995348      1.810762254317
C     -0.185894523960     -1.935951746233     -0.825962413015
H     -0.926334026302     -2.524473284715     -0.298972243835
C      0.665446089670     -1.055236720426      0.026040490727
H      1.414704538630     -0.566099075447     -0.595557970368
H      1.191427613875     -1.658420694831      0.767142294558
C     -0.356034226807      2.500343927349      1.225620273201
H     -0.210038563156      3.477383883730      0.777132349656
H     -1.417546962333      2.312127874237      1.369820973737
H      0.113859235294      2.496438088747      2.208294623547
