17
OptimizedStructure
C     -0.254371344732     -0.735943315124     -0.770365837045
H     -0.005316317610     -0.129600714532     -1.648454799271
H     -1.347419953055     -0.821636898684     -0.730799604777
O      0.220032942124     -0.116759609766      0.413719643209
C     -0.326665792180      1.127347192181      0.645911287201
C     -1.242222868186      1.264119194040      1.584385916299
H     -1.607759229076      0.408511134320      2.130643950636
H     -1.634550985474      2.237017580363      1.845757548787
C      0.351085792601     -2.090750813675     -0.921314087593
H      0.026996724092     -2.620947169235     -1.806639567090
C      1.204929408614     -2.628563284410     -0.078523831448
H      1.515951025799     -2.085953731263      0.798968596699
H      1.615289128446     -3.615086227980     -0.234842714698
C      0.254524555677      2.239360846140     -0.152964705232
H      0.038035007193      2.121566693367     -1.214512584076
H     -0.146301582701      3.197503840298      0.175129915448
H      1.337763488469      2.249815283959     -0.036099127050
