17
OptimizedStructure
C     -0.133157924365     -1.075191617142     -1.592437843875
H      0.232521902535     -0.815623350153     -2.575278833126
H     -1.100948428087     -1.559996790785     -1.575250821229
O     -0.863831244729      0.618165763905     -1.158460138962
C     -0.540755385381      0.980442019434      0.026736728154
C     -1.002943024909      0.307109805264      1.129538236393
H     -1.898719872894     -0.286408084072      1.043106359170
H     -0.743709330701      0.639697987569      2.126542092915
C      0.748403474001     -1.298252895591     -0.544025671478
H      1.769212912582     -0.967782352354     -0.642189357193
C      0.233540558036     -1.535997785185      0.710838078113
H     -0.694999925964     -2.081022020008      0.804723234670
H      0.879837121633     -1.562696280484      1.579168696676
C      0.560988077047      1.976200730967      0.157172855505
H      0.389006502308      2.810302895873     -0.519674352043
H      0.668279802505      2.351453940250      1.173900331057
H      1.497274786385      1.499598032510     -0.144409594745
