17
OptimizedStructure
C     -0.079776715798     -0.631775389503     -1.443118447813
H      0.816940757824     -0.049126566454     -1.660475412539
H     -0.543390064071     -0.896110769512     -2.392789865009
O     -1.052488782553      0.178861389005     -0.787683615632
C     -0.639288492367      0.950078518015      0.268304174555
C     -1.411913066767      0.998114745207      1.338630846316
H     -2.296617587400      0.385643809574      1.405538042842
H     -1.195645624391      1.673601735686      2.154137354775
C      0.260239317922     -1.873545775768     -0.667730279766
H      0.038029113588     -2.812085147783     -1.154096328415
C      0.786006130767     -1.880692139872      0.541595666337
H      1.010069593531     -0.971572424388      1.076796659947
H      0.990173992082     -2.804292138266      1.063186626108
C      0.593621432056      1.770154813582      0.095705798747
H      0.553496420110      2.323253861144     -0.842757917993
H      0.675673863806      2.481784319075      0.915909618935
H      1.494869711659      1.157707160258      0.088847078603
