17
OptimizedStructure
C      0.995561021491     -0.655768762573     -0.420300888078
H      2.051012562861     -0.765632478468     -0.146482568383
H      0.950791167090      0.075956847542     -1.232131015184
O      0.278315230957     -0.190210827962      0.715737453543
C     -0.017669639859      1.154670593683      0.686398008574
C      0.655602625657      1.989086523303      1.453316678168
H      1.473160898069      1.642243462975      2.065590443276
H      0.390913995729      3.035879522200      1.507961178028
C      0.457033552985     -1.963578301157     -0.897736328940
H      0.997812159778     -2.389745502992     -1.731953828679
C     -0.579264251442     -2.579591261221     -0.372877414048
H     -1.099742454140     -2.146578958953      0.466215206379
H     -0.931729294571     -3.527661601844     -0.750832311448
C     -1.177315141223      1.517157154288     -0.171632132733
H     -2.065518792491      0.986912527370      0.171234469305
H     -1.370721777182      2.588588834291     -0.133407553407
H     -1.008241863710      1.228272229519     -1.209099396374
