17
OptimizedStructure
C      0.289044270222     -0.684495120254     -1.142555880308
H      0.724475783502     -0.874020154148     -2.127026200718
H     -0.791773415940     -0.545768488767     -1.261463529064
O      0.904238890160      0.522385257511     -0.699076011542
C      0.203214718907      1.207561931104      0.270991738635
C      0.123541282863      0.791390533120      1.519760767323
H      0.567375382455     -0.137304755405      1.837368384486
H     -0.406366668455      1.375880020228      2.260104867139
C      0.571382139069     -1.839906784566     -0.242189959592
H      1.612730865315     -1.979314695607      0.003601154285
C     -0.352606775551     -2.663297916170      0.207111905850
H     -1.398606817496     -2.524338014529     -0.036503773204
H     -0.116084332846     -3.515542418516      0.827140709289
C     -0.376122890392      2.474646076792     -0.246358183898
H     -1.093533701918      2.267470153660     -1.041489415434
H     -0.874557846676      3.033824792521      0.544385922117
H      0.413649116781      3.090829583028     -0.673802495364
