17
OptimizedStructure
C      2.089636257428     -1.302835906813     -0.573708171507
H      3.104165423073     -1.562536273616     -0.309640102270
H      1.938400941026     -0.911571807415     -1.572116177556
O     -2.637255416366      1.165183856530     -0.133765221432
C     -1.458549817036      1.071522631671      0.102336256482
C     -0.891423314432     -0.055872018941      0.916139458716
H     -0.095300870309      0.314195695982      1.559141937310
H     -1.671072299487     -0.474629673146      1.543776385824
C      1.085352610968     -1.467585502030      0.261631733063
H      1.257519629605     -1.864792451608      1.253047241260
C     -0.332759238939     -1.119629212894     -0.047745688441
H     -0.398435821300     -0.767064737642     -1.080116722544
H     -0.954804048417     -2.012903241792      0.012376824279
C     -0.450313710204      2.055603188159     -0.406030280337
H     -0.183594424283      2.717879016787      0.417411325135
H      0.460534349644      1.558295126064     -0.732065467312
H     -0.862100250970      2.656741310706     -1.210673330670
