17
OptimizedStructure
C      1.648872753143     -2.558743452381     -0.773316487115
H      2.364391764998     -3.296448113627     -0.440359167592
H      1.586311135237     -2.393768916742     -1.841271107450
O     -0.931557626263      1.705302608958     -1.455169966043
C     -0.728762123644      1.547290564933     -0.276917725860
C      0.237400372278      0.503625827392      0.221408600393
H      1.231900904186      0.781854458870     -0.125586377645
H      0.264876902652      0.470806545478      1.309450843781
C      0.884002299094     -1.896448380972      0.068526190596
H      0.962353104472     -2.073250782073      1.133758629985
C     -0.112180216498     -0.863405912912     -0.338986129525
H     -0.160537482278     -0.788326303725     -1.425596560636
H     -1.106702069429     -1.150264335626      0.013576997971
C     -1.411956872230      2.359147948171      0.775677546735
H     -1.990498336238      1.699139413638      1.420911323021
H     -0.669210034281      2.852621712927      1.400176176820
H     -2.068704475198      3.100867117690      0.333717212565
