17
OptimizedStructure
C      0.998408542959     -2.644090040976      0.413741682208
H      0.185720470416     -3.359797357846      0.434782020015
H      1.976213841368     -3.018421116800      0.678270553827
O      0.855720523447      1.779772459054      1.274264655466
C      0.025463309543      1.491374130291      0.447583116538
C     -0.919356259847      0.339663142218      0.632915248005
H     -0.886543889172      0.013128954849      1.668485212031
H     -1.932488270546      0.661021293645      0.397438736136
C      0.801607499202     -1.386212131324      0.080640632169
H      1.623116852540     -0.684470133109      0.081383866283
C     -0.531054883560     -0.815570516390     -0.281286706240
H     -1.290917396239     -1.597329258630     -0.217362290891
H     -0.512516026964     -0.464264762337     -1.316432374560
C     -0.092148334552      2.261680491495     -0.837204071035
H      0.849669298997      2.201473396299     -1.378192044609
H     -0.896390609034      1.911658429741     -1.478539894811
H     -0.254504668558      3.310383019819     -0.600488340532
