17
OptimizedStructure
C      0.812594150299     -1.534578625504     -1.590736319582
H      1.802960728663     -1.119566939392     -1.446164603379
H      0.595808394550     -1.929075800181     -2.572566782472
O     -1.745179548010      1.337143157471     -0.677411590620
C     -0.833243796368      1.164159750689      0.092847957128
C     -0.855366576712      0.059300594692      1.110636474978
H     -1.851951850084     -0.373525496616      1.132339531217
H     -0.628892471929      0.461228988792      2.096754584602
C     -0.075168184134     -1.558238798377     -0.619584770534
H     -1.062727773638     -1.964909575986     -0.789699477546
C      0.163113751776     -1.012461780911      0.750457359611
H      1.176366047256     -0.607760858579      0.809105558574
H      0.091725323586     -1.816310634757      1.486081385467
C      0.384149120461      2.042657460059      0.070437258560
H      0.080690811983      3.055469603855      0.327371466374
H      1.160440633764      1.721876966438      0.759866833373
H      0.784681238536      2.074591988305     -0.939734865750
