17
OptimizedStructure
C     -0.452361983631     -2.336512228894     -1.884214030068
H     -0.584451092989     -1.635504819875     -2.698895336685
H     -0.808773766515     -3.342004896327     -2.053234731505
O      1.696310082235      1.442320361316      1.326660441705
C      0.522868868799      1.346897285530      1.064610158330
C     -0.094803650176      0.019300195850      0.709615335930
H     -1.155586397145      0.114939407708      0.486368622694
H      0.003831052224     -0.634175346291      1.576325951439
C      0.124141846445     -1.979429074292     -0.755951041417
H      0.246479901713     -2.695612206920      0.046327080698
C      0.632872769830     -0.608376633615     -0.465787977603
H      0.520455043327      0.022409072236     -1.351728071717
H      1.694881124584     -0.639750140405     -0.218917573967
C     -0.402891393184      2.519607316631      1.060884920997
H      0.116580045139      3.430301713097      1.339531745152
H     -0.834019581341      2.634776503753      0.067172188046
H     -1.225532869315      2.340813490498      1.751232317972
