17
OptimizedStructure
C      0.216463729799     -1.067607059694      0.481338182782
H     -0.114481929721     -2.047247436457      0.836156826133
H      0.740546617560     -0.562735739119      1.298165050495
O     -0.964830448613     -0.335871030614      0.144058242457
C     -0.944905196804      1.000283401866      0.478269610165
C     -1.435831691748      1.396967072195      1.636018984139
H     -1.810693302681      0.685140732553      2.355066117578
H     -1.487614629225      2.446157958894      1.891631550813
C      1.104205537552     -1.235015089782     -0.706357455157
H      1.499176640577     -0.329192826749     -1.137849228925
C      1.397837733543     -2.406870650608     -1.231392951990
H      1.000969502055     -3.324778714801     -0.816814954005
H      2.045906297091     -2.509201166054     -2.089413404938
C     -0.413996275662      1.903184873309     -0.577486102906
H     -0.916272631751      1.698730345276     -1.522301024111
H     -0.569557296579      2.947895377080     -0.309632341053
H      0.653077344607      1.740159952705     -0.729457101475
