17
OptimizedStructure
C     -0.544876149359     -0.853114131295     -0.031898868295
H     -1.172511827611     -0.204392324139     -0.647171998145
H     -1.199606826448     -1.436317802108      0.623106481227
O      0.326276376849     -0.066413608517      0.784346271963
C      0.081742416630      1.287076528690      0.759178513613
C     -0.408090878362      1.877610146891      1.831474943694
H     -0.671891949407      1.304688566076      2.706519958188
H     -0.530386565609      2.951120371970      1.872576939215
C      0.277054966832     -1.750922839979     -0.889191309387
H      0.976015202625     -1.251602692079     -1.543148164606
C      0.193908806197     -3.064876636091     -0.863726719385
H     -0.493445802972     -3.572823328455     -0.199418119852
H      0.797839942053     -3.693466003287     -1.501292205369
C      0.504486943163      1.986491248558     -0.484602168651
H     -0.022757461918      1.601872623162     -1.358041074098
H      0.315920817676      3.056779602844     -0.409939775163
H      1.570321989663      1.828290277758     -0.648772704948
