17
OptimizedStructure
C      0.030577364571     -0.828238727194     -0.400955323210
H      0.454954420901     -0.276421708378     -1.245996340611
H     -0.997841579138     -1.111403793518     -0.655238924719
O      0.015878251112     -0.027416310085      0.776799014135
C     -0.742928460118      1.116989949545      0.658434880824
C     -1.930389453836      1.169322907348      1.228610324967
H     -2.338677335499      0.311712921794      1.740832426606
H     -2.517048135451      2.077456208575      1.218007840470
C      0.847253498572     -2.037705876785     -0.110415123328
H      0.551763114092     -2.582977059389      0.772561249491
C      1.857402777701     -2.436189518534     -0.854653509591
H      2.164772905938     -1.886190426025     -1.735157299022
H      2.419707867439     -3.330054181580     -0.628971817886
C     -0.085429560059      2.244379914138     -0.054973628612
H      0.091740599567      2.000769748688     -1.102405699770
H     -0.702281047538      3.141043839548     -0.009490059798
H      0.880544771747      2.454922111852      0.403011990054
