17
OptimizedStructure
C      1.067083306141     -1.628249593853     -1.452538122173
H      2.058711575454     -1.257385682017     -1.231807109182
H      0.889204795832     -1.970016730643     -2.462410789788
O      1.339041197939      1.431900024331      0.269312092745
C      0.146352216287      1.268358238953      0.339878295028
C     -0.450711035491      0.119358763503      1.113890210344
H     -0.393797468031      0.388238465004      2.168279954267
H     -1.503403089329     -0.012739288705      0.867955827034
C      0.127052996459     -1.647191490555     -0.531546956052
H     -0.867450338033     -2.004689743904     -0.768107264059
C      0.320503348060     -1.162556719333      0.868153243041
H      1.377102373048     -0.963459133055      1.045957986362
H     -0.009964813794     -1.925317340333      1.575190043294
C     -0.833061920955      2.182487197599     -0.322447591537
H     -1.333570304775      1.631822014014     -1.118062444093
H     -1.596854378062      2.500754284664      0.384683238304
H     -0.336238460750      3.048686734333     -0.746380613534
