17
OptimizedStructure
C      1.325009625653     -1.856215202975      0.763912331423
H      1.587688487646     -2.820590624303      1.171562375524
H      1.640108190865     -0.997482578781      1.340503414830
O     -1.001792925343      2.505931810336     -1.025324372108
C     -0.696635832815      1.625576749847     -0.259916735939
C      0.566924338226      0.829353047911     -0.414705776408
H      1.273304681538      1.387689346377     -1.020105500065
H      1.014422805551      0.658166174759      0.560366841575
C      0.669869109198     -1.753417308162     -0.372726080451
H      0.393291476264     -2.657371624476     -0.899796003734
C      0.227844645600     -0.507094717743     -1.080621519275
H      0.649957960011     -0.523198672127     -2.086925575533
H     -0.853674067177     -0.582232508380     -1.229403475997
C     -1.551578732987      1.236552895494      0.906836883973
H     -1.565687897543      0.158451395076      1.050104008557
H     -1.116631676628      1.680202373512      1.802312048166
H     -2.562420188061      1.615679443633      0.793927135462
