17
OptimizedStructure
C      1.559466841855     -2.204666885797     -0.347207467530
H      2.344215253509     -2.636719118675      0.254568112858
H      1.538541012965     -2.492265787996     -1.390784974294
O     -0.516719801899      1.272216413530      2.119309569495
C     -0.583445143182      1.216312631250      0.915608119750
C     -1.346215244953      0.123122513234      0.219205489489
H     -1.834911116138     -0.488395977993      0.972938620814
H     -2.116311132070      0.570682263354     -0.406948712456
C      0.673421694696     -1.373742525670      0.160595977375
H      0.714949428148     -1.102423843545      1.205566895523
C     -0.437772982410     -0.742664890541     -0.635999210402
H     -0.017623527564     -0.145099185082     -1.448050885542
H     -1.038767577901     -1.521369669626     -1.109530000997
C      0.119838049177      2.205835379523      0.037687904598
H      1.041495563197      1.748762542715     -0.318859607797
H     -0.476866488622      2.474923446814     -0.831554790211
H      0.376705171193      3.095492694504      0.603454959328
