17
OptimizedStructure
C      2.144146835190     -1.665117504078      0.223449734562
H      2.875108827573     -2.426075362867      0.450215324348
H      2.514365040538     -0.649019524637      0.178658572793
O     -2.532397692591      0.899712062284      0.585787702323
C     -1.387001427831      1.108729690221      0.271016727872
C     -0.277451623590      0.182162137135      0.682761574296
H      0.678141014661      0.699603314193      0.727516696578
H     -0.497892496720     -0.226628182318      1.665651759864
C      0.877920697616     -1.960710572146      0.014408379602
H      0.556676038188     -2.991133438418      0.066815905783
C     -0.196010118792     -0.959034569365     -0.319318464661
H     -0.017878979036     -0.553693100754     -1.320012067351
H     -1.167589794526     -1.452027452915     -0.349022861333
C     -0.980105989976      2.276385415343     -0.570558191246
H     -0.412477698596      2.971024673176      0.047316936092
H     -0.329610006157      1.956613430884     -1.382758680002
H     -1.847942625950      2.789208984261     -0.971929049519
