17
OptimizedStructure
C      0.124347083759     -1.097125975470      0.432331090142
H     -0.911456772235     -1.157281405056      0.086469738963
H      0.276285692561     -1.903542129903      1.152698395000
O      0.330768251904      0.112619141470      1.155874372182
C     -0.497009375377      1.158859705046      0.823379826588
C     -1.171706224421      1.752782792966      1.789662588617
H     -1.118152280386      1.390297024255      2.803774568127
H     -1.763117730129      2.636299398224      1.595485890616
C      1.084698697777     -1.242263870424     -0.713337066999
H      1.629318805012     -0.349242508422     -0.970233567463
C      1.276825641907     -2.367816716501     -1.368745301136
H      0.742835448831     -3.273541386769     -1.109945541316
H      1.970347704897     -2.441067081164     -2.192119395727
C     -0.497434581644      1.605913536884     -0.597214355981
H     -0.814366323280      0.810356032181     -1.270190221203
H     -1.168372195445      2.455041902245     -0.721618624949
H      0.506188156269      1.909711540439     -0.896272395461
