17
OptimizedStructure
C     -0.148153577924     -2.798247336451     -1.475722479330
H     -0.342696698707     -2.512638526236     -2.501919452310
H     -0.310743137786     -3.836691593519     -1.226686663929
O      1.631654317303      1.253983706746      1.065474576421
C      0.441483952789      1.347173738036      0.901356452822
C     -0.338220310848      0.430446788379     -0.005556881910
H     -1.009339885087      1.033754252815     -0.614734269204
H     -0.984271605667     -0.161377991352      0.644777445960
C      0.276434410791     -1.923997207128     -0.588123513706
H      0.470750483387     -2.228433719839      0.432077820076
C      0.526247500236     -0.481825604520     -0.869590258651
H      0.354523464177     -0.279750096713     -1.927762603499
H      1.568335615091     -0.247833547184     -0.650845915169
C     -0.378140261775      2.396214036929      1.589056440379
H      0.178597295048      2.844371285870      2.405365500348
H     -0.618619046545      3.174212933569      0.865599191682
H     -1.317842514484      1.990638880596      1.957234610019
