17
OptimizedStructure
C     -0.147326857869     -1.173149469394      1.006054296856
H     -1.015498146060     -1.595980368219      1.523653706364
H      0.745853901621     -1.696531435294      1.361815680104
O     -0.033942497907      0.190425647167      1.438902665761
C     -0.204378855209      1.190153756024      0.509245569115
C     -1.372654672334      1.789921043533      0.388182618657
H     -2.228393246875      1.466965048114      0.960803526313
H     -1.500341918381      2.634445555764     -0.275057385150
C     -0.311930350832     -1.377595816191     -0.460217300016
H     -1.154825597759     -0.878855735596     -0.910748758372
C      0.477471322954     -2.150041343806     -1.178187689071
H      1.327803578979     -2.655570869557     -0.738210207234
H      0.307680180562     -2.325593140480     -2.230327419834
C      1.036174889180      1.574567223335     -0.216057709552
H      1.407212295270      0.740747414655     -0.810304173301
H      0.856540153943      2.425796642113     -0.873029816250
H      1.810555820719      1.840295847834      0.503482395611
