17
OptimizedStructure
C      1.656293857020     -2.661864199542     -0.448397794669
H      1.810830368803     -3.611168195460      0.043294488988
H      2.429271423238     -2.344395257090     -1.137033324059
O     -2.128569040177      0.761153405822     -0.509759333250
C     -1.189453544327      1.180445105658      0.118238188761
C      0.158836704159      0.507544197517      0.129915770808
H      0.926871959104      1.267357259627     -0.005303341817
H      0.298274616362      0.126143264833      1.142666260647
C      0.582214999198     -1.931035203335     -0.237059345676
H     -0.182816169253     -2.266586499172      0.450969623129
C      0.307129471736     -0.618658037962     -0.887815486877
H      1.102024616064     -0.388110802662     -1.598478812930
H     -0.628481621953     -0.681905447339     -1.443855961511
C     -1.278080852929      2.423602142689      0.950047535773
H     -0.776609424374      2.299838341465      1.907281457900
H     -0.774313822124      3.229989023057      0.418575036441
H     -2.313423540549      2.707650901895      1.106715038340
