17
OptimizedStructure
C      0.940462658707     -0.610718764169     -0.937995131021
H      1.918404691900     -1.076618156274     -1.065877225971
H      0.663482373456     -0.136291503549     -1.880434728353
O      1.155912627584      0.377895633695      0.068658361045
C      0.069123456923      1.139615776092      0.423016810832
C     -0.129289878950      1.376350829310      1.706501768446
H      0.505409833793      0.928605967672      2.454603523152
H     -0.909055547713      2.048625551410      2.035530176054
C     -0.080432228400     -1.628857893556     -0.521306289226
H     -1.021840032496     -1.635447755035     -1.050406529566
C      0.128751108494     -2.469075382384      0.471671388509
H      1.061917280133     -2.461402474864      1.017867363467
H     -0.617494207439     -3.179603834403      0.794377735387
C     -0.760616448166      1.717608306198     -0.670380175474
H     -1.331346998632      0.946992242382     -1.187534930099
H     -1.463296904151      2.439009586255     -0.256078608198
H     -0.130091785042      2.223311871222     -1.402213508983
