17
OptimizedStructure
C     -0.428711013627     -2.380002133169     -1.559681738830
H     -0.577173477047     -1.649832190494     -2.343999981376
H     -0.760167641211     -3.384544950856     -1.774284101419
O      0.828186800607      2.351421436949     -0.687083752622
C      0.189052578904      1.721764778059      0.119204550952
C     -0.419635573189      0.392151124468     -0.228424251412
H     -0.736744463306      0.408053099500     -1.266916565727
H     -1.283565791196      0.169940183022      0.395740575640
C      0.129988233285     -2.065019312077     -0.409509803780
H      0.266841112190     -2.828725941006      0.343115010563
C      0.632594348681     -0.691596795103     -0.049612597611
H      1.493054512450     -0.434765922245     -0.671685566919
H      0.981204672706     -0.691281074448      0.985119068913
C     -0.024580448161      2.187600676747      1.524003542475
H      0.582085478439      3.060148464461      1.742794495537
H     -1.075423256269      2.444233626800      1.651592602814
H      0.202993926747      1.390454929393      2.229628512802
