17
OptimizedStructure
C      0.837058358432     -2.094107831368      0.672193737585
H      0.479602145526     -2.769924185134      1.435156057843
H      1.911960306022     -1.982592546771      0.593242867817
O     -2.223943967105      0.907410937048     -0.048591998801
C     -1.033688905026      1.076899319936      0.051326213951
C     -0.109285324916      0.908731881163     -1.124804051735
H     -0.666677813556      1.145710471380     -2.025581942141
H      0.714962070744      1.613366473095     -1.046367177125
C      0.013924883279     -1.451451079935     -0.129010811637
H     -1.053738616287     -1.574643174114     -0.033089835108
C      0.454392032448     -0.528509629466     -1.220752676398
H      1.545994334638     -0.498264072641     -1.241627007744
H      0.133813367517     -0.958116205206     -2.171113573668
C     -0.379929654344      1.468955197351      1.338470387737
H      0.475658657962      0.828464710758      1.538968591465
H     -0.016692349621      2.492348040351      1.247819007514
H     -1.083409525714      1.415721693554      2.163762210445
