17
OptimizedStructure
C      0.956672451697     -2.810999935147     -0.422271600552
H      0.800278258446     -3.673050110129      0.208284134720
H      1.345634933665     -3.002835410957     -1.413875001856
O     -1.832374734627      0.293177208376     -0.577193314389
C     -1.058607558027      0.977018592568      0.043812377267
C      0.431675654688      0.901820520984     -0.154247691909
H      0.705210982374      1.775327744036     -0.746847778466
H      0.937405195635      1.009291184321      0.805005197034
C      0.682787486616     -1.590156773813     -0.013400895044
H      0.283235310005     -1.429705386683      0.979170061319
C      0.876713974663     -0.359532744601     -0.855256927683
H      1.928317526708     -0.264184550681     -1.133398708525
H      0.304582141273     -0.459679119748     -1.777793912354
C     -1.512486773813      1.977884830662      1.062247397543
H     -1.289202894342      1.589744821302      2.055175693067
H     -0.978382582072      2.919298769506      0.953156418767
H     -2.581459372887      2.146580360004      0.987434551060
