17
OptimizedStructure
C      0.956664262956     -2.043952117380     -1.523193706893
H      1.877812723865     -2.409325372917     -1.087083771896
H      0.754941033235     -2.342922915949     -2.540325218109
O     -2.104051761517      1.364117407032     -0.298491721345
C     -1.054946563290      1.211545482730      0.278201434760
C     -0.788743544634     -0.006307645587      1.119526851298
H     -1.692718749862     -0.608763963204      1.147228643860
H     -0.558380975785      0.307781952401      2.136240773765
C      0.126253583634     -1.277502374780     -0.847657938528
H     -0.787367084800     -0.925949445212     -1.304833276841
C      0.362478342472     -0.830884581714      0.570899730253
H      1.288213387220     -0.253988179585      0.627848677736
H      0.506434000732     -1.702901094157      1.211735661040
C      0.062646920996      2.202548534024      0.162427308233
H     -0.313839114751      3.154466847874     -0.197679430526
H      0.584122256879      2.340153592171      1.107509688843
H      0.780481282650      1.821883874254     -0.562353705650
