17
OptimizedStructure
C      0.455790371904     -0.850187968290      0.175850104435
H      0.071624337959     -0.629152219828      1.174115690523
H      1.509418620915     -1.132993181056      0.261546518418
O      0.356290618805      0.307864574715     -0.658239422691
C     -0.170369152678      1.423683386087     -0.052150892293
C     -1.341692449242      1.880378860787     -0.450926395059
H     -1.910556468193      1.360352863976     -1.205711737569
H     -1.745257536409      2.803462334334     -0.058324384115
C     -0.335475947341     -1.947335899174     -0.445889974245
H     -1.380788836765     -1.725664828348     -0.599042278036
C      0.174514779533     -3.106129722459     -0.807489202575
H      1.225002764916     -3.327855941389     -0.668248964406
H     -0.425162663859     -3.886776187249     -1.251708196387
C      0.704678172991      2.081554260916      0.955763105517
H      1.655516461671      2.349166362454      0.495491416732
H      0.235208322315      2.984321004630      1.344409779738
H      0.921258603479      1.415312299893      1.790554832012
