17
OptimizedStructure
C     -0.781144388554     -2.343778215572     -1.637792328307
H     -1.649405569765     -1.798790796524     -1.986793954987
H     -0.738095381959     -3.392536081686     -1.892297438506
O      0.145449592393      1.386763228259      2.725906878348
C      0.157866794336      1.236402580247      1.527858795935
C      0.144472647758     -0.161383382704      0.952387234452
H     -0.735688393621     -0.657705266020      1.360618180275
H      0.998437775561     -0.683098185116      1.385290675916
C      0.170792182147     -1.754423720220     -0.946035362048
H      1.027708197133     -2.319373913905     -0.602581566218
C      0.160965504761     -0.313903373128     -0.556280662431
H     -0.712422168476      0.172047557315     -0.995162483904
H      1.048481895146      0.174758699487     -0.963075226798
C      0.185332553342      2.400675523740      0.589693337762
H      0.187967078080      3.330092083794      1.148599511565
H      1.069926191978      2.352347407252     -0.042051986666
H     -0.680644510261      2.371905854781     -0.068283604391
