17
OptimizedStructure
C     -0.162984180503     -0.682415482247     -1.282586275271
H      0.484628289021     -0.096917464624     -1.936636626310
H     -0.817001098067     -1.291687309817     -1.907755379545
O     -1.058528327989      0.175767770092     -0.576434339281
C     -0.489481420382      1.076207571097      0.290913324769
C     -1.056108493297      1.241737871763      1.471709006103
H     -1.899513696704      0.638666815999      1.768269932727
H     -0.710591777431      2.005615413033      2.153879654408
C      0.639839249765     -1.547741189219     -0.355683253802
H      1.701000157736     -1.357913682639     -0.291323300053
C      0.087156593070     -2.485668545552      0.386315346272
H     -0.976559363299     -2.674404277192      0.340760748435
H      0.658204055636     -3.086469769279      1.078279814291
C      0.676245051078      1.866365839819     -0.193640434220
H      0.456811595638      2.316693380085     -1.162109089482
H      0.903622992097      2.659206972521      0.517364223795
H      1.563260373632      1.242956086158     -0.301323352835
