17
OptimizedStructure
C     -0.383227999901     -1.084201468768     -0.884680125478
H     -0.683492324316     -1.430431388158     -1.878557765805
H     -1.196970538509     -1.327842890158     -0.195569369416
O     -0.217872981217      0.326015023604     -0.969957413991
C     -0.757252325164      1.036531750652      0.082758653487
C     -2.028799445154      1.385206631893      0.071273600728
H     -2.682776002196      1.088628958779     -0.734025744844
H     -2.450023262381      1.983955855459      0.866414935249
C      0.868248368788     -1.797335570770     -0.481011968566
H      0.746306537463     -2.862972685272     -0.341054822824
C      2.044482904760     -1.228144314663     -0.335018625903
H      2.159407739059     -0.168036892058     -0.494243043070
H      2.923503883757     -1.793167112007     -0.062598674960
C      0.221009390454      1.399454551618      1.141032234686
H      1.049582853528      1.956397590541      0.703797231794
H     -0.247418032308      2.012736928680      1.910425550808
H      0.635291233336      0.503205030629      1.601015348105
