17
OptimizedStructure
C      1.031038323430     -0.659012356356      0.127438099385
H      0.887562146153     -0.417685587498      1.184591130844
H      2.079726037752     -0.458812417865     -0.118481854591
O      0.202077894214      0.160387829158     -0.688257040370
C     -0.478309048683      1.146995717937     -0.011249662392
C     -1.782294054251      1.038103064675      0.149297142764
H     -2.311723074175      0.161370294816     -0.189523868507
H     -2.357496862816      1.831849269924      0.605751690390
C      0.731257765327     -2.106275129316     -0.090858571011
H      1.359065884285     -2.780438977263      0.476159251149
C     -0.203216726412     -2.562843360461     -0.895070583895
H     -0.812805073450     -1.877036514158     -1.461289765467
H     -0.382152187697     -3.620380731604     -1.020067814176
C      0.345970446405      2.312334437524      0.407157564879
H      0.837069877234      2.746477143572     -0.463229053968
H     -0.271242982159      3.074519026346      0.880956746817
H      1.125471634842      2.010448290569      1.106676588149
