17
OptimizedStructure
C     -0.008956953013     -1.172523815400     -0.370830008096
H     -0.400776842551     -2.029644771331     -0.921901471307
H      0.224097781557     -1.492658134156      0.649257288743
O     -1.060586892363     -0.207834439642     -0.354740922145
C     -0.902285774105      0.794909911947      0.572393701175
C     -0.695890331237      2.029207716838      0.154724130723
H     -0.589727716500      2.247152969953     -0.895629510656
H     -0.661144063167      2.854892010578      0.852459948839
C      1.211637502529     -0.634651288052     -1.036444208766
H      1.627288822928      0.255457757615     -0.590248446109
C      1.763800749160     -1.179157736803     -2.100602113713
H      1.347586756629     -2.066051398254     -2.561495518870
H      2.654824180161     -0.775044373001     -2.558350023164
C     -1.084388005307      0.413646847690      2.010285934631
H     -0.254009431770      0.760058195705      2.626071440434
H     -1.993936114442      0.866088356431      2.404089053747
H     -1.177533668509     -0.663847810118      2.120960724534
