17
OptimizedStructure
C      0.197245812815     -0.806312057436     -0.137471683398
H     -0.471639088895     -0.749841535103     -1.003925803223
H     -0.351339658274     -1.300236321622      0.672804943460
O      0.583036010474      0.498659622124      0.273408490011
C     -0.487720298526      1.307679359923      0.592858259901
C     -0.878190304323      1.418801994228      1.846659781996
H     -0.403349967539      0.847781989798      2.629733358664
H     -1.673344398582      2.095595301094      2.127068307910
C      1.439392915873     -1.568004936521     -0.482951637614
H      2.349189141422     -1.001016195243     -0.369824757095
C      1.447524279498     -2.819899010617     -0.888656082987
H      0.533174895667     -3.388981457805     -1.000302304485
H      2.363806666213     -3.336898243989     -1.127577483708
C     -1.058036422530      2.056725408636     -0.557440495274
H     -1.453761051545      1.375488909963     -1.311090810109
H     -1.858877680419      2.719725670943     -0.232120565375
H     -0.277110851329      2.650731501628     -1.031171518673
