17
OptimizedStructure
C      0.996211906986     -1.634817975774      0.869633685662
H      1.113762525605     -2.505436082420      1.497112815945
H      1.530200373528     -0.748698936376      1.182509361615
O     -0.139619841959      2.881780052115      0.015419120250
C     -0.264747548779      1.681329822518      0.066707532729
C      0.567694365484      0.807675732986     -0.843761919415
H      0.735130650063      1.385901601971     -1.748924349426
H      1.544698452764      0.704180132701     -0.371197300129
C      0.247646465086     -1.668135261159     -0.212749326662
H     -0.255337812552     -2.589411470105     -0.476610710814
C      0.030035793548     -0.564002823871     -1.203878299867
H      0.504061281605     -0.880401895640     -2.136322609401
H     -1.035801108508     -0.493401593033     -1.432598963959
C     -1.215210606743      1.034804264788      1.024361825605
H     -0.686485190763      0.344026092849      1.674378255980
H     -1.717140319321      1.793110860630      1.616601521618
H     -1.955099386044      0.451497477820      0.479319360270
