17
OptimizedStructure
C      0.257775488847     -0.625643769742     -0.934578093465
H      0.554362489213     -0.479459689970     -1.977887899962
H     -0.820411358980     -0.469821000595     -0.851826919240
O      0.974700450006      0.320340613585     -0.132748470726
C      0.184376391107      1.255021264294      0.494221170654
C      0.039602146199      1.203494010656      1.803796996377
H      0.486253464604      0.406805700852      2.377585695465
H     -0.506998957233      1.969303067303      2.336881090129
C      0.617006082007     -1.993956948961     -0.469565257032
H      1.675155950677     -2.204038333345     -0.452805452063
C     -0.264712908563     -2.893242193800     -0.085911749807
H     -1.327127408431     -2.684015753689     -0.092636265404
H      0.025095338295     -3.879994672476      0.244001475171
C     -0.371806550794      2.314638975922     -0.389918295719
H     -1.024859450466      1.889281221030     -1.151884369613
H     -0.938876776440      3.043666161417      0.187604978921
H      0.440465609951      2.827621347517     -0.904328633686
