17
OptimizedStructure
C      0.497510765250     -0.832248902224      0.509533638174
H     -0.029068934168     -0.934318432594      1.466591095962
H      1.453331933953     -0.336644364883      0.713252762059
O     -0.283817334044     -0.059155284206     -0.386210980115
C     -0.602137368444      1.193008667366      0.094780123526
C     -1.828322794011      1.428579892337      0.517463433559
H     -2.565818744415      0.641526758591      0.544423759495
H     -2.132839030092      2.418557781842      0.827272185621
C      0.757791210318     -2.182770596252     -0.067711569213
H      1.348474503782     -2.826872404892      0.569602266611
C      0.327297672025     -2.592592584640     -1.240446427223
H     -0.260874845604     -1.937431436621     -1.861710644703
H      0.544717260147     -3.582465971932     -1.613189644295
C      0.482444481228      2.206846591021      0.003273163915
H      0.857397878086      2.253845616693     -1.018672993315
H      0.113173595613      3.190435494016      0.290566709411
H      1.320739750377      1.951699176378      0.651183120531
