17
OptimizedStructure
C      0.661021130438     -0.438509941745     -0.576407971364
H      1.641282239380     -0.137014578606     -0.958040695853
H     -0.097196006742     -0.178619268748     -1.318390332884
O      0.410354957837      0.256285129153      0.648793005692
C     -0.684449151357      1.087583437697      0.638209920852
C     -1.725331173244      0.790697594522      1.391877113510
H     -1.747298220450     -0.118767808555      1.971639445367
H     -2.566135660514      1.465368423204      1.475249324995
C      0.629234814769     -1.901550420291     -0.302731800119
H     -0.296769862615     -2.267652038493      0.114108650954
C      1.642398638463     -2.712213461529     -0.526270469587
H      2.577633826710     -2.347304202605     -0.931547946115
H      1.589118267771     -3.771581806111     -0.323164472861
C     -0.542329322659      2.327957135954     -0.171522969942
H     -0.384418871187      2.099664810667     -1.225377528385
H     -1.430060896313      2.952522041404     -0.080491113383
H      0.322945289713      2.893134954083      0.174067839124
