17
OptimizedStructure
C      0.945009847222     -1.010647885781      0.727221297410
H      0.202403846718     -1.074227463173      1.521840231063
H      1.926184063952     -1.187783123814      1.166685014237
O      1.006606778835      0.323780608964      0.222393676544
C     -0.108577695337      1.101943314997      0.256141092336
C     -1.303647676917      0.782010779296      0.723277149701
H     -1.552112552255     -0.183139022872      1.132250549877
H     -2.093543432035      1.518945936370      0.702843031656
C      0.678529026093     -2.004397266603     -0.366094554974
H      1.496375371488     -2.665121662743     -0.613958873685
C     -0.452225603857     -2.094041812166     -1.039122167453
H     -1.287916918930     -1.442685703814     -0.840942039111
H     -0.577177263744     -2.810721798610     -1.837640065435
C      0.211729228941      2.436295004246     -0.326140028498
H      0.539967885037      2.320114561589     -1.358028163972
H     -0.658129126139      3.089787620525     -0.298678188058
H      1.026524220927      2.899887913588      0.227952038365
