17
OptimizedStructure
C     -0.635475943702     -1.068289358799     -1.754555986088
H     -0.298540180028     -0.051977229566     -1.887972865376
H     -1.313876939451     -1.454920484300     -2.501443135076
O      1.473282716959      1.269250753265     -0.478590821259
C      0.528996443963      1.150099323741      0.262309773714
C      0.275065959392     -0.111461932126      1.045614635278
H     -0.773736341408     -0.185810373365      1.328513454548
H      0.846535436578      0.006392576374      1.967419267532
C     -0.222964138578     -1.814836906005     -0.750065816857
H     -0.569135974779     -2.836283487948     -0.671631262491
C      0.728104797594     -1.367590219307      0.328088367826
H      1.710466658070     -1.166858909172     -0.101105869325
H      0.847019341209     -2.168697939978      1.057036316974
C     -0.453308760932      2.253749511309      0.496079130901
H     -0.115425507840      3.180485323079      0.044392215880
H     -1.406949783781      1.967632458529      0.054342569049
H     -0.620057783267      2.399116894268      1.561570024771
