17
OptimizedStructure
C      0.577546683330     -0.946395356265      0.672025784881
H     -0.166273220100     -0.914561138674      1.472376915360
H      1.478921551173     -1.415730849009      1.068431348887
O      0.973367465289      0.374429587835      0.334204575744
C     -0.010048146004      1.296233581285      0.134998282779
C     -1.314085617994      1.082286322491      0.184799979063
H     -1.752561010914      0.116696434868      0.372895972094
H     -1.993615000139      1.905920985671      0.016163499191
C      0.066703203891     -1.711053405929     -0.514119076993
H     -0.110338032581     -1.119453176487     -1.396893725375
C     -0.155394479473     -3.008640901793     -0.506234192928
H      0.022146230850     -3.610288159224      0.376338529070
H     -0.525172793555     -3.531858159263     -1.374414378298
C      0.603612695809      2.621698892702     -0.155245734610
H      1.232615011264      2.555388888358     -1.042009681629
H     -0.165162831266      3.374882499721     -0.317894269892
H      1.237738290420      2.930443953712      0.674576172655
