17
OptimizedStructure
C      0.408333948928     -2.341510757593     -1.299220243580
H      0.885319685033     -2.541585471045     -2.247435458143
H     -0.205763025001     -3.134993688680     -0.891881891229
O     -1.522381414217      2.542901048605      0.536434267352
C     -0.692263424678      1.670680927953      0.438262022444
C     -1.129721257319      0.226679388021      0.551033254515
H     -1.784697012740      0.036756997066     -0.299789654379
H     -1.771212292943      0.186068590110      1.429520475494
C      0.565973814293     -1.197889050341     -0.665918857457
H      1.185673619800     -0.425902894844     -1.096285431875
C     -0.084716403128     -0.876146568781      0.640361792562
H     -0.580030030782     -1.777762219095      1.005798655558
H      0.669323687812     -0.608069685235      1.383220252848
C      0.746687901505      1.999841609840      0.189941594918
H      0.914144885107      3.059282857834      0.352905558009
H      1.411946600551      1.415097420073      0.819308484125
H      0.983380717780      1.766551496111     -0.846254821162
