17
OptimizedStructure
C     -0.526099973897     -1.016172278953      0.267944965563
H     -1.367335144245     -1.444177789140      0.823007200642
H      0.271116703167     -0.793124464745      0.980887384470
O     -0.988219012590      0.174096007704     -0.377507845786
C     -0.560207735412      1.340522810855      0.214015019448
C     -1.411892915923      2.073336413316      0.903880537131
H     -2.427911991835      1.745082983971      1.058062320636
H     -1.123354734394      3.033043894642      1.309823335402
C     -0.045021219761     -1.962664108344     -0.775692570144
H     -0.745211768017     -2.146084286235     -1.575770404824
C      1.138058706817     -2.539833559661     -0.755963303991
H      1.846720384509     -2.355234477941      0.042055794662
H      1.454187687586     -3.231624170380     -1.522608453192
C      0.849530037565      1.712169822808     -0.082966996470
H      0.981681418688      1.806302951607     -1.160606058859
H      1.110617127196      2.658855412865      0.388916326507
H      1.543342430543      0.945504837633      0.262522748805
