17
OptimizedStructure
C     -0.695191435072     -2.267335614865     -1.554984798710
H     -1.153824192547     -1.420068756607     -2.047962206205
H     -1.085556959231     -3.238230845280     -1.819468939343
O      1.603126155440      1.835015321044      0.262211762629
C      0.473456326528      1.527893155477      0.549433163772
C     -0.119788747858      0.188596617613      0.209880686406
H     -0.879337932815      0.358120449820     -0.553822296997
H     -0.649773577420     -0.201626315339      1.079238841229
C      0.288530632065     -2.126707089252     -0.690204269627
H      0.721678836966     -3.005139373957     -0.233011209217
C      0.897691230506     -0.812471731857     -0.287170025800
H      1.432253385740     -0.366455132570     -1.127129407781
H      1.642771747812     -0.966125985991      0.492852432315
C     -0.446451626421      2.458102821648      1.280460425078
H     -0.047545845101      3.467023116259      1.284646420397
H     -1.443072643623      2.453388461750      0.844712262449
H     -0.538965354968      2.116020902108      2.310317159405
