17
OptimizedStructure
C      1.751223478568     -1.828944988668     -0.799792659210
H      2.819475699855     -1.987608381138     -0.756164100906
H      1.292290689505     -1.865053767153     -1.777887968786
O     -0.242965740878      0.767792198053     -1.553273729041
C     -0.503839838881      1.083228594300     -0.419239792232
C     -0.772028968307      0.079246376136      0.667287318959
H     -0.224039821210      0.369708750890      1.563947778178
H     -1.831285141025      0.172931550003      0.911681177861
C      1.037394680754     -1.581967801682      0.277461591606
H      1.511380265237     -1.525576160816      1.249892578372
C     -0.436531660717     -1.342713249836      0.271512414769
H     -0.832768616050     -1.528974663937     -0.726628420848
H     -0.920443831975     -2.030614323413      0.967360428015
C     -0.634798851916      2.526605179155     -0.022993147435
H     -0.761384383132      2.668015033619      1.046641539357
H      0.241779940650      3.072680830647     -0.360967256762
H     -1.493457900479      2.951244823842     -0.538837751896
