17
OptimizedStructure
C     -0.510819013780     -0.866148627213     -0.956801737954
H     -1.000756993396     -1.254638010732     -1.853234729370
H     -1.003909506589     -1.301147480111     -0.080877358053
O     -0.725554251314      0.543102072924     -1.007014618408
C     -0.749643954776      1.174559239699      0.217656684627
C     -1.899126595051      1.632372694595      0.674336109644
H     -2.816532762823      1.468400051536      0.131117370481
H     -1.948503402577      2.204575971316      1.590177341566
C      0.936102293141     -1.232269993505     -0.994323583808
H      1.514876468101     -0.706136762467     -1.737375558361
C      1.484875682345     -2.151220578404     -0.227578282410
H      0.907294360672     -2.684017310273      0.517839846540
H      2.525289230771     -2.427621164614     -0.311986560266
C      0.566028590473      1.362732233077      0.886364402289
H      1.262348244571      1.849354476007      0.202773641351
H      0.455378209569      1.980538207362      1.777409404637
H      1.002653400661      0.407564980802      1.171517627495
