17
OptimizedStructure
C      0.193506117826     -1.664571844407     -1.758280883533
H      0.943223453668     -1.892562573953     -2.502748682987
H     -0.809769929158     -1.481413070667     -2.118112655150
O     -1.508205629208      1.164928548868     -0.533012999901
C     -0.532795202988      1.196257161111      0.175382699754
C     -0.246726158209      0.105375091411      1.177340381792
H     -0.907313746320      0.278283831653      2.026457502562
H      0.777113588766      0.169028243323      1.543119827579
C      0.478723281427     -1.599089848397     -0.475080324302
H      1.490427332451     -1.767401078460     -0.127331770788
C     -0.518597348610     -1.263540613669      0.585208427082
H     -1.521305601947     -1.256671999668      0.158377413433
H     -0.486550180776     -2.013658675777      1.377174198644
C      0.463944649892      2.308732108520      0.125714998212
H      0.124262447395      3.110970846278     -0.520723764515
H      0.657235572686      2.693147901384      1.125499599997
H      1.402827353103      1.912185972449     -0.258983967879
