17
OptimizedStructure
C      0.157012132000     -0.819891423051     -1.621008232276
H      1.057410205771     -0.216534075245     -1.672141799177
H     -0.291048417923     -1.030835039327     -2.581243542646
O     -0.943863946586      0.528275729218     -1.094303869175
C     -0.576045621646      0.904880106810      0.079176199535
C     -0.915884714113      0.160155577817      1.183596592736
H     -1.759614762889     -0.509283573621      1.125060765941
H     -0.643451199546      0.497666366401      2.176218156112
C      0.018824752677     -1.734375492735     -0.577887763587
H     -0.711547774144     -2.520825203547     -0.666466235910
C      0.497339987740     -1.395395423801      0.668495975236
H      1.368540680972     -0.755305078975      0.752663986283
H      0.326020804642     -2.042126377149      1.519139268972
C      0.412648762377      2.017243034129      0.173218724598
H      0.016352776525      2.903363625490     -0.319159420044
H      0.654876756523      2.267065457024      1.205441706535
H      1.332429577621      1.745921790561     -0.350800513133
