17
OptimizedStructure
C     -0.028448415673     -2.588079497331     -1.779045219037
H      0.484815847239     -2.133934572025     -2.616881606140
H     -0.499733884476     -3.542753299019     -1.962141169384
O      0.848629210920      2.208674080841     -0.543109370444
C      0.167216152676      1.696430563241      0.309917686418
C     -0.476109319506      0.350091569790      0.098875480368
H     -1.197893369232      0.452326320952     -0.710707037665
H     -1.018117209553      0.022362240379      0.984589292013
C     -0.065223057000     -2.004659987285     -0.599795443751
H     -0.585545052499     -2.473042904425      0.226037802622
C      0.561414230806     -0.684910674454     -0.297785446982
H      1.104369959089     -0.313003753108     -1.167027622992
H      1.283556981311     -0.796654860620      0.515654974360
C     -0.090721054211      2.342325980733      1.632835643386
H      0.385569717620      3.315087527066      1.693460709964
H     -1.163007533869      2.448759434650      1.787952456592
H      0.289226796357      1.700981830614      2.427168870673
