17
OptimizedStructure
C      0.229701264608     -0.697695122915     -1.294205824318
H      1.178906372890     -0.153579950904     -1.328757887396
H      0.064529143105     -1.162227703377     -2.267869018111
O     -0.869624897950      0.194123472953     -1.131080077987
C     -0.824032761247      0.945439597893      0.021779787761
C     -1.763807285029      0.773411402894      0.931096674964
H     -2.524460591253      0.018832553837      0.808801344931
H     -1.811891970684      1.405077657327      1.807775806745
C      0.267389230499     -1.727831391459     -0.217607987186
H     -0.649459995336     -2.279815529456     -0.078493972270
C      1.324390088360     -1.965001828739      0.530884360605
H      2.244689262882     -1.408262766247      0.402054097887
H      1.330549266251     -2.727175291417      1.296239866553
C      0.247899715760      1.987673993911      0.112122976338
H     -0.189887080153      2.982844381084      0.037327183795
H      0.775748729642      1.930363050961      1.064347576192
H      0.969361507656      1.883823473656     -0.694414908502
