17
OptimizedStructure
C      0.909429351547     -0.626630936611     -0.836681447980
H      1.851997610905     -1.002800156133     -1.240896209700
H      0.446438623260      0.007369083799     -1.595866813962
O      1.299372494195      0.122343237307      0.307842294419
C      0.481653654213      1.114164741703      0.788930320288
C      1.025403904868      1.988176399697      1.619360246267
H      2.071030000060      1.931627852962      1.874122401841
H      0.428665521857      2.763550404741      2.075725062397
C      0.030800341774     -1.782154789633     -0.488405105672
H      0.343858573985     -2.335069574346      0.383682246672
C     -1.017824553208     -2.152416672298     -1.192907674195
H     -1.334220024193     -1.601099989216     -2.069853037933
H     -1.603077376853     -3.024217887049     -0.941247426462
C     -0.955237589058      1.140076977825      0.401582869506
H     -1.443155715128      0.200035388697      0.651495620941
H     -1.453859745633      1.950300803499      0.931864738764
H     -1.081275072591      1.306745115055     -0.668748085192
