17
OptimizedStructure
C     -1.232736911315     -2.141671500703     -1.146086613497
H     -1.862200234239     -1.274282894800     -1.297532324705
H     -1.659313927416     -3.091791391963     -1.429086915638
O      1.411918194558      1.310290221593      1.963490278078
C      0.581598480112      1.304975504339      1.088708768276
C     -0.179416522914      0.057908449984      0.735378973675
H     -1.144021810709      0.291979310010      0.290796973254
H     -0.344612772177     -0.528494019753      1.635722887321
C     -0.017741776589     -2.048657418119     -0.646549442908
H      0.574003679624     -2.943528991985     -0.517096191134
C      0.650104147399     -0.761020950607     -0.241543307932
H      0.858971421678     -0.162658040155     -1.133595090998
H      1.611440228127     -0.972327127743      0.226510152151
C      0.262275334809      2.515245727071      0.269861492414
H      0.970980261445      3.314103592670      0.461669842511
H      0.256743100513      2.270998840881     -0.790978566501
H     -0.737990892905      2.858930689280      0.530329085632
