17
OptimizedStructure
C      1.152543357385     -2.061483496172      0.610420882934
H      0.601238073963     -2.207418906919      1.530115283461
H      2.155290364399     -2.460471912638      0.586685581168
O      0.716675479706      1.613507706785      1.534361898964
C      0.021530519411      1.329766777582      0.590723577221
C     -0.970236947633      0.198992394196      0.655493135836
H     -0.884457454493     -0.268107367928      1.632064020714
H     -1.973831311766      0.614225526794      0.567493281213
C      0.634494201589     -1.421631646604     -0.417200744453
H      1.219614134098     -1.293784931505     -1.316938784760
C     -0.754379534238     -0.837004127585     -0.436034274203
H     -1.490616548743     -1.632287847772     -0.303339148647
H     -0.953011558908     -0.387814952089     -1.409165454914
C      0.105757671659      2.074529612285     -0.707535546739
H      0.677116854063      1.472707037318     -1.411758697995
H     -0.878465263573      2.247131352307     -1.138758576125
H      0.620737963082      3.019144781946     -0.566626433673
