17
OptimizedStructure
C      0.947702946629     -0.571572345360     -1.123948174628
H      1.886290109648     -0.725844912732     -1.654928816905
H      0.229810141876     -0.151927629184     -1.830598131414
O      1.265464183529      0.382148069539     -0.112839507771
C      0.228757064767      1.041409809875      0.496449307276
C      0.281158648003      1.199068201817      1.806889425316
H      1.075206552068      0.751690862669      2.382772009974
H     -0.447509935427      1.805037310208      2.326455284231
C      0.449988591655     -1.872827503599     -0.560169103868
H      1.048592776469     -2.744721857250     -0.779847789726
C     -0.636016106601     -2.003120747602      0.176423402654
H     -1.257738170104     -1.161712487001      0.438410059656
H     -0.936197479473     -2.960955090928      0.575451115827
C     -0.829533167429      1.633926293078     -0.370342601469
H     -1.470654082665      0.871751199401     -0.812429391819
H     -1.455763728141      2.299133864963      0.222293570629
H     -0.379558344803      2.208516962107     -1.180040657964
