17
OptimizedStructure
C      1.983407794840     -2.183442266120     -0.716128618840
H      2.595822253516     -3.021125965930     -0.416382698725
H      2.389967863187     -1.541377487884     -1.487508886909
O     -2.430481424962      0.885420460893     -0.163124473380
C     -1.336726557940      1.169275653407      0.258619747326
C     -0.337072874586      0.102691561600      0.623511023501
H      0.601199683997      0.531169752747      0.970350501806
H     -0.758359608861     -0.479652936777      1.442864106944
C      0.800120181328     -1.957131185732     -0.185603434195
H      0.411884985066     -2.611108286276      0.584541756011
C     -0.087029805982     -0.818070559462     -0.557480871578
H      0.361419657481     -0.253854304147     -1.379656192213
H     -1.054877895241     -1.184838245347     -0.901781961977
C     -0.882817742193      2.580576070946      0.444349577210
H     -0.591072583751      2.739534743756      1.481126744111
H     -0.001514468198      2.759167247956     -0.170479409246
H     -1.663869457701      3.282765746369      0.172783090155
