17
OptimizedStructure
C      1.805239206430     -2.191847583922     -0.466609170896
H      2.452878666992     -3.019297047812     -0.219800630643
H      2.146852410732     -1.536583543614     -1.256719098927
O     -0.926946211999      1.804333331264     -1.603842514546
C     -0.673031312307      1.534121766070     -0.455986783563
C      0.354725198608      0.495437359468     -0.103749820852
H      1.156786375998      0.527996407638     -0.835128512833
H      0.777914271020      0.667476572836      0.884505310260
C      0.661527114997     -1.996705725595      0.156364827265
H      0.354989280038     -2.681730218252      0.934308621739
C     -0.299003150962     -0.877276807725     -0.148083494422
H     -0.729709791830     -1.015821362038     -1.142380047193
H     -1.128733805568     -0.906793589165      0.561052937725
C     -1.370335344302      2.177413429056      0.699886792249
H     -1.716061462698      1.423584587322      1.405119948230
H     -0.660474445076      2.813838726811      1.226641378575
H     -2.206617000074      2.781853697658      0.364420257831
