17
OptimizedStructure
C      1.195155400622     -2.649752335013     -0.241823802475
H      1.493552569048     -3.409951116555      0.465145100753
H      1.524257348643     -2.785173736320     -1.264125349430
O     -0.930189682313      2.583688985837     -1.019051995454
C     -0.582152227113      1.788614946724     -0.182042049494
C      0.568791294435      0.849076805947     -0.404007238162
H      1.208614216790      1.250447667815     -1.182626274882
H      1.159479397592      0.755235185578      0.505218113781
C      0.463470649381     -1.614342426245      0.111523058447
H      0.147289882192     -1.498722042407      1.140310347158
C      0.027194155936     -0.531922453872     -0.820037639739
H      0.359188078352     -0.767111590268     -1.831600640413
H     -1.064880831294     -0.501201609025     -0.853473126336
C     -1.276124368934      1.653248099600      1.138339738518
H     -1.430170128810      0.607931627391      1.397654801113
H     -0.638121195476      2.090546337652      1.905787468025
H     -2.225354559052      2.179387653161      1.134809488588
