17
OptimizedStructure
C     -0.962657597810     -0.954556982263     -0.472053509755
H     -1.650452682754     -1.350442473800     -1.221729874934
H     -1.489078287788     -0.893686991772      0.483790707482
O     -0.638779217688      0.345215407727     -0.949266542600
C     -0.054367999521      1.216841335396     -0.081266932998
C      0.257453956536      0.985154718982      1.182716275047
H      0.106697652491      0.039672528081      1.673165319373
H      0.710818821399      1.776180590856      1.764826911863
C      0.236714366889     -1.836773683788     -0.375924619201
H      0.901691658574     -1.787452710116     -1.224564577785
C      0.475773036250     -2.651312261467      0.630270042072
H     -0.186635285321     -2.705708873405      1.485527699864
H      1.331076738111     -3.309906903814      0.647803708984
C      0.193339571570      2.530748864379     -0.757436816675
H     -0.140429189988      2.484050190416     -1.790335715746
H     -0.344818953427      3.332214843312     -0.252767210035
H      1.253653412476      2.779762401277     -0.742754864955
