17
OptimizedStructure
C      1.834534706312     -2.070447012088      0.145632888386
H      2.536327226740     -2.887036004439      0.062571076333
H      2.043787427392     -1.334542103172      0.908699934403
O     -2.359405642627      0.738881741646      0.520455602072
C     -1.224793813893      1.127090757508      0.390912559814
C     -0.060535851814      0.171460982829      0.403016755486
H      0.882147126616      0.686264833140      0.228976137521
H     -0.016199353346     -0.282373564359      1.392369887822
C      0.782621777700     -1.986238545125     -0.641536878764
H      0.615035214005     -2.748243530985     -1.391250177455
C     -0.263224311401     -0.917650042528     -0.626205342910
H     -0.316762473726     -0.471391971337     -1.624006827135
H     -1.239951693712     -1.371668693806     -0.449581699861
C     -0.880923997013      2.569582136941      0.207119699917
H     -0.190598392742      2.885568001335      0.987396095381
H     -0.372033146536      2.700149362042     -0.747094430868
H     -1.770024801955      3.190593652396      0.232524719859
