17
OptimizedStructure
C     -0.001773941557     -0.785411213496     -1.339121671269
H      0.848357993407     -0.692281185674     -2.022400915382
H     -0.751283727355     -1.425632489407     -1.817422590889
O     -0.589190051772      0.518671229497     -1.221346456687
C     -0.816280712405      1.024618016613      0.037707258865
C     -2.010806027874      0.922293821757      0.587149334987
H     -2.807664660585      0.385711059158      0.095642567708
H     -2.229868977879      1.389604761325      1.537436693600
C      0.432497324089     -1.419796730999     -0.063265213692
H     -0.332988138780     -1.533723963615      0.687239681559
C      1.654197549200     -1.865768104789      0.146206823722
H      2.432279326620     -1.756628047274     -0.598706770033
H      1.933035086491     -2.370222437822      1.059673538337
C      0.336663841166      1.760180389429      0.622924464883
H      0.651049726589      2.547670979303     -0.061938263624
H      0.068446478353      2.209358919873      1.579361183959
H      1.183328912290      1.091354996121      0.770860333955
