17
OptimizedStructure
C     -0.177985885318     -0.938285984314      0.461149797204
H     -0.958193612942     -0.761524420999      1.205960790863
H      0.790040766948     -0.934664737443      0.968831204303
O     -0.213141496106      0.092111588003     -0.525590813952
C     -0.188408244032      1.379755598393     -0.050742630134
C     -1.026708249117      2.251826587943     -0.579895191439
H     -1.749900219266      1.942808779359     -1.317461697772
H     -0.983576538555      3.298471270905     -0.314284478303
C     -0.394692833604     -2.243409902695     -0.242309043116
H     -1.286524722358     -2.794777886988      0.013587732146
C      0.437775632049     -2.699921407584     -1.155181533888
H      1.321214325861     -2.142567853364     -1.432672087148
H      0.262300411287     -3.625688362498     -1.682025075504
C      0.842108762590      1.724494502921      0.967676278853
H      1.827990215745      1.393923095366      0.639589752320
H      0.866738965013      2.802970570253      1.115885080265
H      0.630962721804      1.254478562741      1.927481915299
