17
OptimizedStructure
C     -0.196266922938     -1.100972795070     -0.757963072816
H     -0.350022581977     -1.519233980994     -1.754253640004
H     -0.898169431176     -1.582356617076     -0.074340304094
O     -0.520863658758      0.284306306028     -0.901658787224
C     -0.983181379702      0.939746884921      0.211704175156
C     -2.009738280870      1.757576682766      0.064228449810
H     -2.502947200495      1.858285935939     -0.889159491663
H     -2.354735025579      2.371672816122      0.883552533069
C      1.227783182328     -1.313669826075     -0.331603860600
H      1.401838933248     -1.679567328277      0.668262724769
C      2.243913008775     -1.047739407222     -1.127030246807
H      2.082745105277     -0.668304734781     -2.126668702513
H      3.270139764316     -1.175814700024     -0.816287018012
C     -0.245340874381      0.753558279791      1.491328109113
H      0.813192529557      0.969394379652      1.351733041781
H     -0.647538638141      1.422908018322      2.250973657765
H     -0.330808529483     -0.269789914025      1.857182432271
