17
OptimizedStructure
C      1.048190130014     -2.315592781901     -1.260155268275
H      1.842839404451     -3.000335598861     -1.518146544511
H      0.362052261809     -2.050940220937     -2.054274225197
O      0.502891057785      1.902406203733     -1.155982131640
C     -0.091545780258      1.558852199254     -0.164788733783
C      0.448485147779      0.506924310663      0.762216540968
H      1.529733719475      0.480027260396      0.667440377878
H      0.199989192641      0.741366917348      1.794488773293
C      0.919953926080     -1.819791439156     -0.047855850536
H      1.622117688969     -2.084080163042      0.731683604270
C     -0.146570252520     -0.855452098524      0.353918139463
H     -0.835815587587     -0.728117844811     -0.484596542536
H     -0.722049922524     -1.271427820618      1.182925060330
C     -1.425648426775      2.123914429426      0.212972885808
H     -2.114415271642      1.332591477222      0.501615730701
H     -1.292855523370      2.772800711823      1.077922992444
H     -1.847351764326      2.706854457983     -0.599384808678
