17
OptimizedStructure
C      1.076133314550     -2.177795240067      0.729997202120
H      0.401555189895     -2.239879789272      1.573697292229
H      2.037862776181     -2.652010427169      0.853628141061
O      0.928351782742      1.268519870211      1.381599120181
C      0.069447326346      1.247113877126      0.535948261274
C     -0.945302759289      0.138823180310      0.462212833072
H     -0.980059346810     -0.365204371487      1.423133911038
H     -1.931175880890      0.545238117783      0.243174522198
C      0.754597741652     -1.543942796496     -0.378071779997
H      1.463515900142     -1.500013483021     -1.192452899773
C     -0.568256482058     -0.863600620270     -0.619915853077
H     -1.358889422220     -1.615151081238     -0.680264234911
H     -0.547368538309     -0.360263595754     -1.587886423757
C     -0.061662868415      2.322618404348     -0.498468445035
H      0.825567215349      2.946668232054     -0.519676249122
H     -0.245508067675      1.905144522680     -1.485727068750
H     -0.918807881191      2.943735200261     -0.240928328753
