17
OptimizedStructure
C      1.751054068971     -2.026610381766     -1.193596359850
H      2.745461062747     -2.449479931567     -1.197934921638
H      1.321327871781     -1.786839461262     -2.157241662637
O     -1.011795139258      1.151302199795     -1.377172866249
C     -0.796658317024      1.269172261886     -0.197579713677
C     -0.291900654202      0.142861729919      0.668176409308
H      0.719552553289      0.425246201834      0.964324124545
H     -0.876477945566      0.126726300800      1.587017053076
C      1.086446798134     -1.810577577434     -0.078260144548
H      1.530726206286     -2.050277276051      0.879595146308
C     -0.280844439085     -1.215519436504     -0.025636684707
H     -0.655104762293     -1.079889156769     -1.039817211172
H     -0.958496645198     -1.897294116468      0.489814703861
C     -1.016837328987      2.563132747473      0.526329381247
H     -1.932634797583      2.480719709557      1.110270364356
H     -0.205366514805      2.775681688720      1.218692236126
H     -1.128452017207      3.381644497837     -0.176979854350
