17
OptimizedStructure
C      1.838958985221     -0.905984245098      0.467701986877
H      2.905868797622     -1.065238230111      0.424509526527
H      1.457921264132     -0.491604488976      1.390382984846
O     -2.058698085791      1.713582650548      1.072276322078
C     -1.172854300266      1.133613291496      0.490652239059
C     -1.127938066308     -0.377084786337      0.521646287266
H     -0.661484409671     -0.657239828227      1.466368686442
H     -2.160583514599     -0.709779872926      0.589888395043
C      1.060648676426     -1.209127824055     -0.549819308177
H      1.502957630957     -1.628975336323     -1.443942072413
C     -0.432867146343     -1.093870009421     -0.620000633114
H     -0.711830585854     -0.631355974063     -1.569509007387
H     -0.824953784114     -2.112703506479     -0.670073098146
C     -0.105729059117      1.877172188372     -0.248834960373
H     -0.268231112278      2.946263305583     -0.157473911065
H      0.875014097171      1.615172735152      0.136838869261
H     -0.116199387187      1.597159930865     -1.300612306726
