17
OptimizedStructure
C     -0.482512366825     -0.776040577305     -0.873375815275
H     -0.141984679823      0.011658871374     -1.551656724759
H     -1.481850770753     -1.076521589185     -1.208126421006
O     -0.578419391913     -0.285837205426      0.457891045917
C     -0.556573030378      1.087692403161      0.558451322322
C     -1.670598537745      1.741740227562      0.820898040602
H     -2.611860213089      1.221663719917      0.905322775367
H     -1.666583690412      2.810645537454      0.982906640227
C      0.449580920209     -1.939338668464     -0.952507031801
H      0.523314296960     -2.384531304319     -1.935535818118
C      1.135547724046     -2.415653830581      0.063088983781
H      1.041212783463     -1.967398509219      1.039122593489
H      1.796886589581     -3.262770366534     -0.041521111872
C      0.795934574722      1.697215520921      0.450772336003
H      1.261125084155      1.462785626607     -0.506839908016
H      0.745401027045      2.779973058318      0.559939312664
H      1.441379680757      1.294717085719      1.231169780476
