17
OptimizedStructure
C      1.480484032085     -1.456445390595      0.462048812122
H      2.171538265575     -2.167022220027      0.891597323879
H      1.807479997225     -0.427880746961      0.452497298024
O      0.154842825288      1.423860956529      1.800992013927
C     -0.199814724748      1.207603830452      0.668591933018
C     -1.228676499747      0.156989284914      0.347824853979
H     -1.563513941955     -0.291395466891      1.279580108242
H     -2.079502513040      0.661345147993     -0.110018674511
C      0.302245614866     -1.835459635145      0.009820787007
H      0.027365511736     -2.879465137608      0.065636116317
C     -0.733164544452     -0.926270024520     -0.599603655347
H     -0.340194185532     -0.462917876888     -1.506843289221
H     -1.591518493671     -1.523476634599     -0.906780754243
C      0.341731274999      1.990500998454     -0.492024695814
H      1.019166456256      1.364274730498     -1.068232477534
H     -0.457310158042      2.308399765468     -1.158980392845
H      0.888841083156      2.857358418924     -0.136105306999
