17
OptimizedStructure
C      1.918560624729     -2.405846571968     -0.145554585227
H      2.101933111234     -3.411363053433      0.203317237400
H      2.745290217043     -1.908139704003     -0.637067375337
O     -2.328478653705      0.413300052609      0.959757467356
C     -1.364349644395      0.975840157969      0.502613756368
C      0.031102996268      0.470714042901      0.734470713405
H      0.731013827363      1.296267087694      0.834874592477
H      0.047920957446     -0.102036013551      1.656853978580
C      0.752670710843     -1.815617531938      0.008855644917
H     -0.064226530179     -2.323129961571      0.503204435512
C      0.439582169275     -0.429594973983     -0.447738586489
H      1.303224247018     -0.012417298144     -0.969279918147
H     -0.379817400936     -0.478037684554     -1.169350150203
C     -1.473389871189      2.195836715016     -0.357287028636
H     -1.120789005249      3.053221988961      0.214946203569
H     -0.838740622918      2.107712042792     -1.236802977036
H     -2.501507132649      2.373290705203     -0.655813408510
