17
OptimizedStructure
C      1.609772368308     -1.700152002673     -0.252568753630
H      2.343901921329     -2.259507234630      0.308493603986
H      1.966191193769     -1.194056702880     -1.141835252097
O     -0.028525146787      1.078361500586      2.031953740708
C     -0.326957108117      1.098062661272      0.863449866480
C     -1.361371130348      0.168720711067      0.294760047227
H     -1.870343866331     -0.329204119256      1.115740758272
H     -2.094205561578      0.736797030868     -0.275773864804
C      0.349074413135     -1.637523282274      0.119634383118
H      0.017519950847     -2.139215261432      1.018506437678
C     -0.704373940002     -0.866475806026     -0.606588048515
H     -0.262490553814     -0.382337694866     -1.480803153988
H     -1.477206500634     -1.547561569059     -0.968892017315
C      0.328967275545      2.051354965952     -0.093265515559
H      1.408741202767      1.953990876946     -0.012640850733
H      0.026163314827      1.902566876262     -1.126227976395
H      0.075142167084      3.066179050143      0.206056595569
