17
OptimizedStructure
C      1.180315400022     -0.851778509191      0.309578073400
H      1.924808009586     -1.439152526977      0.849776990989
H      1.689259313137     -0.298508460624     -0.486106436577
O      0.641698047057      0.032479537027      1.288581385614
C     -0.285095284061      0.924732278530      0.798092239958
C     -1.529293340523      0.851646891532      1.229666988493
H     -1.837207273365      0.073333656987      1.909634889941
H     -2.264394530624      1.588415713027      0.935254626438
C      0.130154595039     -1.736082345185     -0.270795094302
H     -0.458346182440     -2.283274361258      0.449551640798
C     -0.092453993406     -1.856237098005     -1.562983031616
H      0.488923673322     -1.302959061713     -2.290574674859
H     -0.851309044585     -2.514883375720     -1.959265074549
C      0.219586249971      1.990184153324     -0.125792219947
H      1.246431343106      1.798563649763     -0.426900402457
H     -0.400021147970      2.064198669170     -1.019799673891
H      0.196944165734      2.959321189314      0.372079772567
