17
OptimizedStructure
C      0.386430519029     -2.343158662150     -1.552082023542
H      1.196981228213     -1.776671611115     -1.992026914791
H      0.041463626058     -3.202410993623     -2.108483928618
O     -0.615394289018      1.782914861053     -1.284829846630
C     -0.383747675789      1.516873126487     -0.131828343338
C     -0.855897927118      0.237987307767      0.499875628795
H     -1.732605045018     -0.112970763901     -0.035864587894
H     -1.131330746299      0.402379662953      1.538822878473
C     -0.151278873519     -1.993759828306     -0.402854927531
H     -0.969870359794     -2.563022053748      0.017160774983
C      0.274424814368     -0.805078980532      0.393801173827
H      1.151625851338     -0.361081912936     -0.083446288697
H      0.578557472156     -1.124167921774      1.392375579989
C      0.414934789165      2.416584265501      0.759494117518
H     -0.260045465873      2.873488478856      1.482312315695
H      1.156488500096      1.849786925729      1.318730438106
H      0.899263582004      3.202308099738      0.188843953656
