17
OptimizedStructure
C     -0.221775340854     -1.119231156158      0.925896239624
H     -1.110018820165     -0.821874205567      1.485067632899
H      0.365691643215     -1.801440794480      1.541627690157
O      0.632384222171      0.009127824156      0.747001628800
C      0.080252906158      1.156395436793      0.265254166119
C     -1.187040061539      1.350360023383     -0.057064113594
H     -1.942421115878      0.585871796174      0.014841473577
H     -1.502135921173      2.318222083137     -0.421455205505
C     -0.578912126791     -1.771828745659     -0.376951336683
H     -1.594932139036     -1.672692077392     -0.725839986393
C      0.308607949015     -2.425533506035     -1.098844101414
H      1.334128500654     -2.521582337522     -0.769180069829
H      0.061431497405     -2.873812641410     -2.049444028603
C      1.133339501131      2.203255313073      0.149944478810
H      1.915271446763      1.869817335373     -0.531010008708
H      0.711371699615      3.135687177877     -0.220490385030
H      1.594756159308      2.379258474258      1.120645925773
