17
OptimizedStructure
C     -1.114628025672     -1.105715781973     -0.352581070612
H     -1.492323774220     -0.676621605613     -1.283773183150
H     -1.862474458513     -1.825141647150     -0.011806887145
O     -1.073266548378     -0.135573080154      0.676434195678
C     -0.319109545042      1.003555618011      0.528883388223
C     -0.003689467304      1.653532621498      1.636784922151
H     -0.297049778754      1.278575611158      2.603067363797
H      0.529316552543      2.591529582138      1.591520193181
C      0.176132482979     -1.817495911368     -0.596638650419
H      0.148440493726     -2.507681802132     -1.429625516439
C      1.267432349519     -1.679434301240      0.125133220363
H      1.296310827585     -1.001559763121      0.962766382522
H      2.165209165378     -2.239361446967     -0.092584574441
C      0.064149436927      1.507582819079     -0.829319841822
H     -0.270555172225      0.857827974787     -1.631069166495
H     -0.361787096248      2.497666655342     -0.992149511416
H      1.147892557700      1.598314457706     -0.905041263976
