17
OptimizedStructure
C      1.343711427223     -1.931052815220     -1.512905594781
H      2.337656235630     -2.206219799031     -1.834166097331
H      0.570881595588     -1.940142032298     -2.270924073003
O      0.775077521342      1.341235278497     -0.754829787978
C     -0.099203756073      1.299980196721      0.072818476323
C     -0.306405879600      0.110209052342      0.975389323774
H      0.492217465894      0.128190408888      1.717996145617
H     -1.248147750901      0.205113624666      1.511460334936
C      1.084080972939     -1.585888149909     -0.270287697874
H      1.874677730984     -1.566671848881      0.468984746655
C     -0.270848713727     -1.217122070966      0.236138605451
H     -0.979080313028     -1.197034899277     -0.596244285550
H     -0.608503599517     -1.991060162588      0.930366603210
C     -1.053949254213      2.433557033924      0.286287942581
H     -2.062408131886      2.102501044528      0.042795724418
H     -1.054439825637      2.731180175605      1.333173025903
H     -0.795315725020      3.283224962999     -0.336053392350
