17
OptimizedStructure
C      0.337311892324     -0.828039038176      0.131558703009
H     -0.264238805225     -1.099053251552      1.005238409195
H      1.323558084237     -0.499852090679      0.483436355872
O     -0.284523111991      0.229087373282     -0.592244398343
C     -0.419162183375      1.387983713369      0.143736855719
C     -1.390785006759      1.531980220574      1.022552575039
H     -2.088796963829      0.733657634984      1.223495201352
H     -1.519424150723      2.458693690365      1.564099963291
C      0.478916962202     -1.986715906011     -0.791371432452
H      0.978128130068     -1.768108829756     -1.722755525255
C      0.038551986212     -3.197134790975     -0.519519240040
H     -0.473098216251     -3.418356494984      0.408540415667
H      0.172501753114     -4.023979135562     -1.201112219741
C      0.582415263983      2.425289114144     -0.212983026859
H      0.516183863491      2.647106790286     -1.277398251896
H      0.419272758619      3.342651825320      0.351499625516
H      1.593187743905      2.064789175371     -0.016774010072
