17
OptimizedStructure
C     -0.452783175473     -2.647431696795     -1.452189924300
H     -0.387936746716     -2.978623123415     -2.478071483737
H     -1.029963517346     -3.271553758186     -0.780387577974
O      0.875242735362      1.413227077017     -1.076071097679
C      0.325585712759      1.438931494151     -0.002469883184
C     -0.570129659394      0.325650898549      0.479409842509
H     -1.476847830438      0.344498885590     -0.124610082131
H     -0.861929911148      0.503731702197      1.511979906873
C      0.143636961249     -1.549685999245     -1.037953595859
H      0.708952811826     -0.930208750087     -1.714271435378
C      0.078083144521     -1.049500223152      0.367722856924
H     -0.493376988906     -1.756436307842      0.973890152925
H      1.086921643462     -1.000551316667      0.786490867254
C      0.488097981803      2.582773564966      0.948567293200
H      1.098908030540      3.367383778108      0.515349925955
H     -0.487593886113      2.983210408218      1.217678563805
H      0.955132694014      2.224583366595      1.864935670797
