17
OptimizedStructure
C      0.214200798424     -1.253977715484     -1.705345029892
H      0.386540061292     -0.200003611711     -1.861554712995
H      0.121883614182     -1.854232649400     -2.598742529096
O     -1.519685305456      1.559494500984     -0.743955964263
C     -0.665495043469      1.225080889597      0.039245984210
C     -0.852820422697      0.050884847348      0.961966021008
H     -1.844652020284     -0.361447291445      0.795879473629
H     -0.809674385710      0.427651343892      1.983771016299
C      0.091034130790     -1.787526817095     -0.506777798843
H     -0.099994772153     -2.847929211781     -0.419155478304
C      0.195845362084     -1.039859680226      0.797103690605
H      1.191710363594     -0.604747064381      0.902623712741
H      0.080198424169     -1.745362239338      1.619707397562
C      0.629202623378      1.974391926717      0.163829605189
H      0.568369938496      2.917877451420     -0.368695317344
H      0.879262928904      2.156553898304      1.207209942442
H      1.434073704455      1.383151422601     -0.267110012949
