17
OptimizedStructure
C      0.775555304486     -0.843787765665      0.624745665906
H     -0.161830632634     -1.085536469164      1.119031766107
H      1.578419787631     -0.868966221530      1.366648804723
O      0.753598547607      0.475895837679      0.080373719529
C     -0.350355549553      1.258305747425      0.228891705324
C     -1.440205784423      1.004646804386      0.933001795244
H     -1.600875443952      0.105408950748      1.504156709024
H     -2.234937594395      1.736213202953      0.952491856115
C      1.041277242065     -1.801559057518     -0.483969499509
H      1.919148497798     -1.587710405199     -1.074087681747
C      0.274606645597     -2.837540813163     -0.753417192610
H     -0.611464839523     -3.053931068370     -0.170095935869
H      0.494607626282     -3.522663709650     -1.558790702027
C     -0.153863743826      2.518804170070     -0.543354451728
H     -0.013554825205      2.290598751844     -1.598947538639
H     -1.011376190488      3.179369694521     -0.430964613915
H      0.741250952533      3.032452350635     -0.195714405929
