17
OptimizedStructure
C      1.426048396430     -1.016300207385      0.507998583824
H      2.060384387126     -1.355881881164      1.313982115211
H      1.934038653976     -0.407780945138     -0.232961356919
O      0.612528760440      0.367286719747      1.362851445393
C     -0.229659788991      0.896784831097      0.547666280407
C     -1.442353271858      0.292370488791      0.315486569030
H     -1.834605917291     -0.394578426036      1.048763233821
H     -2.169864628766      0.758337542965     -0.337991087921
C      0.339221323742     -1.793128988995      0.109474892216
H      0.011505553726     -2.597840378823      0.745741560388
C     -0.522866077032     -1.289624772855     -0.839548575619
H     -0.144384866573     -0.628013792416     -1.610790062667
H     -1.424618540274     -1.826006482705     -1.104769912639
C      0.242052041906      2.030184105847     -0.298859500446
H      1.087062029774      1.711508826468     -0.914174032970
H     -0.543376381888      2.413662241150     -0.948949067211
H      0.598888325553      2.839021119450      0.336078916104
