17
OptimizedStructure
C      0.907270318087     -0.973760483864      0.537930493122
H      0.203013051924     -1.179876798391      1.347868688436
H      1.898608201738     -1.311023905682      0.846644832900
O      1.059412389687      0.427628603265      0.350850174926
C     -0.068022985015      1.187675598734      0.273976922676
C     -1.317023461018      0.760282753377      0.350776280966
H     -1.590464265693     -0.274853742921      0.455307949941
H     -2.122611837836      1.479182390455      0.285010706741
C      0.508564946927     -1.672041768810     -0.718842239049
H      1.049564838977     -1.359858108694     -1.598998413111
C     -0.398257160585     -2.624469713260     -0.778858185117
H     -0.945613907652     -2.942498172682      0.100041725682
H     -0.631474086020     -3.140964893191     -1.697793073834
C      0.293360214722      2.630715966835      0.095218797473
H      1.373699398715      2.739575409939      0.056756386629
H     -0.131562690084      3.024737558153     -0.827102300241
H     -0.088462966874      3.229549306735      0.921211251862
