17
OptimizedStructure
C      1.976809772097     -2.003468973802     -0.347008487087
H      2.676645438435     -2.792300724554     -0.116901640520
H      2.400828829365     -1.096738955796     -0.758445448477
O     -1.881841451962      1.162448695380     -1.055194606835
C     -1.062245746712      1.303371529445     -0.182625008658
C     -0.067110230719      0.236930593007      0.182559677668
H      0.915391535678      0.595328980729     -0.125882234015
H     -0.024503742443      0.140230286262      1.267813195208
C      0.682347842165     -2.143673382204     -0.146903799041
H      0.306114425886     -3.073589328933      0.255577118681
C     -0.354068977329     -1.100477125025     -0.460447344562
H     -0.430462048264     -0.950829930710     -1.538403319445
H     -1.337982758480     -1.437502405606     -0.135613125300
C     -0.963845876115      2.561315730426      0.625963495716
H     -1.370177348761      2.368663105684      1.617912798463
H      0.071108686396      2.871258958765      0.752282088788
H     -1.537008349236      3.359032946933      0.165316639414
