17
OptimizedStructure
C     -0.277887848507     -0.791470252260     -0.336289689792
H     -0.845758751468     -0.370846682710     -1.175813652740
H     -0.985085066003     -1.052849866145      0.457547041340
O      0.661506449152      0.171326005550      0.131302111174
C      0.077278773168      1.359452383074      0.518431435109
C     -0.507226610545      1.484227879173      1.693117166574
H     -0.582533604911      0.650219098744      2.374053598847
H     -0.923748360853      2.429934427155      2.010557017820
C      0.484599696907     -1.990151175462     -0.779189612220
H      1.269708271008     -1.791966801449     -1.492493788205
C      0.242598272881     -3.211110695513     -0.350667869738
H     -0.536302387956     -3.413015088963      0.373601676457
H      0.800360175310     -4.065465220515     -0.704451386563
C      0.242809486005      2.444329276759     -0.482592155503
H     -0.234850573356      2.171813647245     -1.424767338055
H     -0.187624040018      3.379567857132     -0.126409981856
H      1.302156119186      2.596005208186     -0.685934572649
