17
OptimizedStructure
C      1.842256669847     -2.070070626101     -0.343569823369
H      2.393135379174     -2.998327405879     -0.309192019257
H      2.252977290733     -1.291966213710     -0.969794925857
O     -0.088619148980      2.676692451544     -1.126131769406
C     -0.455509861021      1.739203566489     -0.459249248132
C      0.360687293514      0.467235788706     -0.454112630817
H      0.446141960114      0.150426480241     -1.493022462120
H      1.367783419028      0.747260198479     -0.146951007547
C      0.731976863748     -1.909203297882      0.345330092582
H      0.362936915400     -2.721380203533      0.958123045444
C     -0.128694686830     -0.684470556520      0.391616245287
H     -1.136829334109     -0.970023985944      0.082147721322
H     -0.210663569642     -0.370286447805      1.434792455301
C     -1.701806009958      1.803948679776      0.365371401760
H     -2.397426244228      1.026654480172      0.055987831007
H     -1.468021503007      1.628509819222      1.413397125261
H     -2.170325433782      2.775797272744      0.255257968542
