17
OptimizedStructure
C     -0.242454807926     -2.084480063445     -1.774527000854
H     -0.869268477222     -1.303030919629     -2.179789816438
H     -0.096377763539     -2.949822611466     -2.403437741856
O      0.451836913421      1.986935073803     -1.078950280385
C      0.045313980864      1.558609192674     -0.027599834468
C     -0.714006659231      0.265169717733      0.061106745768
H     -1.191885550411      0.078715904452     -0.893700305252
H     -1.487705769592      0.323875761978      0.822707906753
C      0.332616500399     -1.998516936431     -0.594645892479
H      0.963855881795     -2.810919336562     -0.257837835453
C      0.263840480261     -0.867895929800      0.390366055027
H      1.278138480361     -0.466352423218      0.478502431337
H      0.028319422922     -1.290104981751      1.370004034812
C      0.280960831039      2.258536260019      1.274528629248
H      0.999863270681      3.063432464515      1.161195138055
H     -0.664495427985      2.677395597853      1.617258546237
H      0.621448694162      1.558453229275      2.034819219948
