14
OptimizedStructure
C      0.203515983572     -0.778841155761     -1.630510059480
H      0.420261942799     -1.358855416179     -2.511297406509
H      0.231374204999      0.289820317218     -1.755752039066
O      0.823747593834      2.574229211408     -0.257646900573
C      0.748253226386      1.537186579250      0.339486000797
H      1.660500139960      1.015288034000      0.693302252122
C     -0.527170756435      0.843750367287      0.719076180024
H     -0.803821711082      1.236835088065      1.703134989240
H     -1.318436924854      1.122649440992      0.021089277041
C     -0.072983546279     -1.358992566640     -0.478638387022
H     -0.082577807883     -2.440153824447     -0.411496313278
C     -0.382725846390     -0.672292813668      0.817837460827
H     -1.309666814973     -1.093918975110      1.217704158138
H      0.409730316345     -0.916704286413      1.533710787738
