14
OptimizedStructure
C     -0.296666520697      0.115848671316     -0.911763003375
H      0.641465410197      0.634733275999     -1.160512132306
H     -0.859428326047     -0.041075367642     -1.836052733781
O     -1.112341585684      0.954563097635     -0.115387587304
C     -0.545168842973      1.619454947691      0.917131569944
H     -1.304187725406      2.210544327907      1.413648655619
C      0.714169666254      1.627253993180      1.325734687919
H      1.496660805996      1.051045840284      0.865575147482
H      0.998647436784      2.236623133026      2.162488408333
C      0.004293582798     -1.200060429657     -0.254132521117
H      0.216885658118     -1.144248586714      0.804509640789
C      0.010390015157     -2.356977186785     -0.887432734715
H     -0.207824691802     -2.428689354799     -1.940420468710
H      0.243105117304     -3.279016361441     -0.383386928778
