14
OptimizedStructure
C      1.654025372810     -1.505248978887     -0.669384067904
H      2.499433174272     -1.462235804373     -1.334104713995
H      1.650352468345     -2.311962673697      0.045792978326
O     -0.369377604393      2.923079822798      0.106748117909
C     -0.893980675457      1.848480257528      0.035767226695
H     -1.658328914049      1.636560908197     -0.740812244403
C     -0.633960714766      0.685514099627      0.946610231128
H      0.269946138117      0.871084689690      1.529075251961
H     -1.482494106499      0.628658377276      1.635402381710
C      0.672682548525     -0.625986064265     -0.726842369625
H      0.699033717116      0.180398463175     -1.448775732505
C     -0.524108699758     -0.633800482497      0.172967376996
H     -1.428387070447     -0.769180104438     -0.428466336492
H     -0.454835633816     -1.465362510134      0.876021900197
