14
OptimizedStructure
C     -0.641377157196      0.098869782295     -1.244380455738
H     -0.104192489703      0.862029058901     -1.831030221631
H     -1.608589442263     -0.076579442375     -1.729350562463
O     -0.948907710173      0.590405061907      0.037245750121
C      0.080394883658      1.150196058962      0.725902460790
H      1.006023261558      1.278124333954      0.172453202785
C     -0.038353634694      1.535552954755      1.985691866977
H     -0.958258765387      1.401184277121      2.524653522914
H      0.782162912091      1.998899584918      2.498509830116
C      0.156784849438     -1.175938460819     -1.256149123875
H      0.424181260273     -1.509487120750     -2.250087451398
C      0.515142066283     -1.856131830727     -0.184697455518
H      0.247357016188     -1.532528613741      0.807272185356
H      1.087632949927     -2.764595644400     -0.256033548439
