14
OptimizedStructure
C     -0.509975224421     -1.348986533941     -1.769944750050
H     -0.237869337560     -1.438220764801     -2.807640984285
H     -1.477586206174     -1.737882496670     -1.496371018035
O      1.188732096040      2.414385085354      1.721419565809
C      0.769638793808      1.722924647912      0.836682855023
H      1.246378629128      1.727114616134     -0.162602698396
C     -0.407319123216      0.800154430915      0.945728967896
H     -0.794403239907      0.836445809804      1.965664163293
H     -1.179424098611      1.158836356765      0.259697134039
C      0.294385341430     -0.801399072923     -0.878445869654
H      1.262609944741     -0.425936238060     -1.180774772060
C     -0.047061200068     -0.650871218635      0.571662610713
H     -0.904874229558     -1.283044648509      0.808764031073
H      0.796767854369     -0.973519973344      1.186160764632
