14
OptimizedStructure
C      0.558430289457      0.158483391346     -1.156295205044
H      1.434423330580      0.726604103035     -0.809777974735
H      0.615464066937      0.086560106525     -2.249312690026
O     -0.622934241035      0.885105373968     -0.901046830394
C     -0.800794206737      1.395199308810      0.340785954012
H     -1.717512192984      1.970614613561      0.359371668839
C     -0.030645303943      1.276503729340      1.410194814375
H      0.874377372887      0.696772971206      1.426388983243
H     -0.307949895959      1.762329273128      2.326321415588
C      0.594293012891     -1.226825012045     -0.573990859384
H      1.552149460470     -1.718315504175     -0.682249500699
C     -0.424606155136     -1.832413439810      0.003801255155
H     -1.381482036330     -1.349516963396      0.109667272700
H     -0.343213501097     -2.831101951492      0.396141696369
