14
OptimizedStructure
C      1.287678105327     -1.477553641309     -1.487769900514
H      1.907366749705     -2.353899203428     -1.569455921740
H      1.397125392064     -0.742756356033     -2.268870550355
O     -1.578113328937      2.159174072925      2.137604361894
C     -0.980578713061      1.841693528852      1.149154318310
H     -1.001395080945      2.476882345325      0.239945181903
C     -0.148849456294      0.604227280254      0.992577806213
H      0.899974274211      0.917016230112      0.993555092126
H     -0.311391386703     -0.056588341216      1.845641036244
C      0.435092685552     -1.313357557048     -0.494634657703
H      0.343411813180     -2.065483020239      0.277998299329
C     -0.449261591389     -0.117810901889     -0.328125548716
H     -0.306954554942      0.569344871689     -1.164593656370
H     -1.494104907770     -0.440889307996     -0.323025860620
