14
OptimizedStructure
C      0.107560494170     -1.470156524785     -1.810173014177
H      0.630439597157     -1.483446564153     -2.750831793338
H     -0.739321839961     -2.131962787308     -1.726002510747
O      0.511462073493      2.857043962212      0.517714879909
C      0.455603037729      1.750310000442      0.972731268761
H      1.285394395786      1.343322292921      1.587571254259
C     -0.689497302845      0.794842031370      0.812849058867
H     -1.237875128597      0.798676637384      1.759920078812
H     -1.357539044257      1.151555914235      0.027212018775
C      0.481856231100     -0.693729246176     -0.811921485572
H      1.331744272688     -0.031728996160     -0.919565201371
C     -0.208275723833     -0.630331051919      0.515378932687
H     -1.059347074337     -1.313100233358      0.524527391571
H      0.487796011708     -0.941295434705      1.300589121564
