14
OptimizedStructure
C     -0.577229718911      0.070879885890     -0.771055231894
H     -0.943324742940     -0.051311693004     -1.794129607329
H     -1.436230935962      0.290236382227     -0.118975058788
O      0.289485268526      1.188838384962     -0.815274750704
C      0.606067825104      1.809771501514      0.344069795499
H      1.270079978378      2.637420537059      0.129336176178
C      0.213648811509      1.540963907855      1.579667059346
H     -0.438976760443      0.726103552070      1.836839386379
H      0.550737677078      2.157396915569      2.391329936084
C      0.109890008786     -1.181906026723     -0.309465068579
H      0.805121681237     -1.047689463947      0.507647191150
C     -0.089600068152     -2.371843599911     -0.842208056623
H     -0.773100569275     -2.519074810466     -1.662387022124
H      0.413431545066     -3.249785473096     -0.475394748597
