14
OptimizedStructure
C      0.169210126812     -0.320606866912     -0.023874048391
H      1.037201097388     -0.398313154615      0.651297199758
H      0.494896830899      0.172122344743     -0.949773309946
O     -0.848460112072      0.436939575919      0.605112059272
C     -0.548700971820      1.702233406413      0.971664986667
H     -1.416184046232      2.156299137350      1.432623697076
C      0.591521682987      2.359978004833      0.830518844134
H      1.469481542657      1.937450118230      0.376488209724
H      0.671790071533      3.372081605287      1.178965540981
C     -0.366045165215     -1.689275659598     -0.307933719150
H     -0.947334270572     -2.115516417692      0.497178627771
C     -0.163546282950     -2.347770808803     -1.432428031990
H      0.408393675387     -1.926393020001     -2.242999601980
H     -0.552224178801     -3.339228265154     -1.586840453927
