14
OptimizedStructure
C      0.922510984222     -1.311940536359      0.580457758467
H      1.996785585681     -1.103684373722      0.460216737332
H      0.818050806765     -2.221854257413      1.186249542978
O      0.285407860084     -0.237029824406      1.248670923106
C     -0.639157906791      0.403888972217      0.373112730753
H     -1.618032302279      0.433948002464      0.875822231128
C     -0.199544788474      1.836712594071      0.054319594748
H     -0.091548578023      2.398168190310      0.977967763048
H      0.757283792608      1.824946776879     -0.462278242399
C      0.229654537078     -1.425312692747     -0.741925657552
H      0.473661801611     -2.196500911197     -1.448147162028
C     -0.667666335884     -0.463120949158     -0.853225993612
H     -0.940338653503      2.321934969684     -0.575647535362
H     -1.327066803096     -0.260155960623     -1.675592690609
