14
OptimizedStructure
C      1.527992347527     -0.542935131194     -0.822822235372
H      2.326760801076     -0.926490184533     -1.434407330794
H      1.706141861800      0.416449549737     -0.368571478061
O      0.259872863522      2.665535930419      0.446076137981
C     -0.373161821863      1.697660810995      0.129515067923
H     -0.902341082129      1.655887303057     -0.844129170430
C     -0.573229792423      0.474970389432      0.976066522314
H      0.261121104250      0.369507153867      1.671629896274
H     -1.474105268990      0.662418722153      1.569959937315
C      0.407708937961     -1.218793454612     -0.655438359643
H      0.283023029421     -2.178892629629     -1.141415491471
C     -0.778885482423     -0.797189742640      0.158558434744
H     -1.629124119883     -0.661278277322     -0.518804734222
H     -1.041773377847     -1.616850439730      0.833782803442
