14
OptimizedStructure
C      1.641092992589     -0.627541917360     -0.565572143117
H      2.510281298423     -1.044565610811     -1.044724241265
H      1.793597143963      0.308898190808     -0.055499430082
O     -0.635144635066      1.910145292282     -1.040019429077
C     -0.405948649137      1.730659646812      0.121540339172
H      0.008719342341      2.545134385436      0.752378941779
C     -0.672761153656      0.464290632168      0.885232510366
H      0.108965646012      0.310753599573      1.630866721583
H     -1.608661924439      0.632609646962      1.428451860222
C      0.468977319295     -1.229632446921     -0.625403753232
H      0.376428097265     -2.162408329259     -1.167752805467
C     -0.817484035971     -0.754483546994     -0.021747785960
H     -1.502593307553     -0.504843282731     -0.837743450136
H     -1.265468134065     -1.579016259965      0.539992665215
