14
OptimizedStructure
C     -0.201786461705     -0.250761693997     -0.558340034910
H      0.008253232684      0.467026045271     -1.367586726788
H     -1.294127475674     -0.388359890254     -0.512796699920
O      0.272356547681      0.254840203757      0.670030754078
C     -0.227756176114      1.436933814416      1.090884894187
H      0.222668887947      1.699075863512      2.039471895972
C     -1.123681638173      2.218067300306      0.507448841761
H     -1.591285710628      1.990078368140     -0.433132487172
H     -1.418287397558      3.136825924007      0.977912749923
C      0.448527504793     -1.561923306227     -0.879583333255
H      0.116509532644     -1.991591021404     -1.815439447120
C      1.342637550103     -2.166592375523     -0.122369239999
H      1.668334968152     -1.733721706148      0.807061629582
H      1.777636635848     -3.109897525858     -0.403562796339
