14
OptimizedStructure
C     -0.079977005923      0.027439993911     -1.024832246349
H      0.710032992665      0.594321916831     -1.545682151847
H     -1.049600692623      0.381097245815     -1.414077708765
O     -0.002816767803      0.248349829064      0.364770544382
C     -0.128778306472      1.537341758472      0.768807096690
H     -0.276558747409      2.271212774894     -0.018437613133
C     -0.075864876127      1.887302009027      2.043485728948
H      0.070606013275      1.155114510285      2.815947503154
H     -0.178393591831      2.914212885950      2.336218144573
C      0.072591178405     -1.428760183516     -1.344224985454
H      0.020020269048     -1.648061276255     -2.402387354878
C      0.254718208662     -2.378895153975     -0.448535055322
H      0.305352741213     -2.148895459742      0.601072220226
H      0.358668584923     -3.411780850761     -0.732124122225
