14
OptimizedStructure
C      1.925799825444     -1.308441743774     -0.391970321019
H      2.766371522030     -1.268379329819     -1.063434851013
H      2.046756152638     -1.924222730762      0.485092219940
O     -1.655320307329      1.302916476320     -1.361831464986
C     -1.315713937035      1.629688282914     -0.261032397064
H     -1.443984616718      2.675571675724      0.088594563458
C     -0.716653055401      0.734304235541      0.784153135920
H      0.178792923215      1.218633769443      1.182343997416
H     -1.441400976615      0.681235467754      1.602741514480
C      0.806893411089     -0.651848982907     -0.630348064209
H      0.703682177359     -0.041607006171     -1.517167349752
C     -0.390313324271     -0.670690681274      0.267614750940
H     -1.252195204709     -1.037310226382     -0.295957932681
H     -0.212714589697     -1.339849206607      1.111202198571
