14
OptimizedStructure
C     -0.672454764596     -0.146539900789     -0.791241675881
H     -0.396963184865      0.543240745067     -1.606515215413
H     -1.629462283709     -0.613332665233     -1.036698241416
O     -0.892103141034      0.579124281207      0.399977429706
C      0.046243432452      1.506691869994      0.720359977412
H      0.744471758209      1.766799507548     -0.071277527667
C      0.093719729159      2.087582391773      1.907702343001
H     -0.600446330046      1.823537249965      2.684077257939
H      0.821204210072      2.847197210916      2.119687398454
C      0.400697455541     -1.186758739117     -0.639156424934
H      1.297667078104     -0.841953667517     -0.140854960241
C      0.292994491242     -2.432216311456     -1.058563970750
H     -0.597552299999     -2.789929582736     -1.548649094096
H      1.091983849471     -3.143442389624     -0.938847296115
