14
OptimizedStructure
C      1.417050195889     -1.419686411035     -0.920540111049
H      1.919153869726     -2.247519738748     -1.391575484643
H      2.039674274622     -0.577681475892     -0.671240429484
O     -2.000357705904      1.791115318948      1.204525845382
C     -0.822541583105      1.897131760391      1.012957679940
H     -0.276322109188      2.815933215539      1.311995190363
C      0.061792966239      0.867888052830      0.374556890427
H      0.536276960615      1.332140755231     -0.494434328628
H      0.856733561689      0.627274652575      1.085884186014
C      0.120976159956     -1.455268901481     -0.673610658380
H     -0.447911108266     -2.334381331158     -0.950357247233
C     -0.704424085990     -0.386446350794     -0.029535953236
H     -1.509402513601     -0.104728413645     -0.715206025715
H     -1.190698882682     -0.805771132762      0.856580446241
