14
OptimizedStructure
C      0.344147842577     -1.065871380567     -1.832293414868
H      1.128514214668     -1.263970665863     -2.542121610071
H     -0.649030162019     -0.960583323367     -2.238279618074
O      0.696799191706      2.676867846400      0.438170081965
C     -0.110120807446      1.792977768349      0.391974647621
H     -0.940653353526      1.814645339763     -0.342248829269
C     -0.133017077732      0.585676015321      1.282822264709
H      0.827196531297      0.493133127515      1.793249165976
H     -0.906540573614      0.758901898506      2.037205020429
C      0.580413439513     -0.964086960225     -0.538682417937
H      1.587020309810     -1.072591860392     -0.156546655832
C     -0.466260673280     -0.686542444002      0.495300846312
H     -1.442682463885     -0.581953810532      0.017933482042
H     -0.515786418068     -1.526601550907      1.193517036997
