14
OptimizedStructure
C      0.314145322826     -0.034702411687     -1.174395032539
H      1.034001109744      0.004463386862     -1.999509220806
H     -0.698281986056      0.089091470352     -1.584132550727
O      0.654390082494      1.062521014548     -0.349645234083
C     -0.175554030789      1.287817543960      0.703479620218
H     -1.049362299675      0.646198316022      0.761833458548
C      0.060405413970      2.232740762837      1.597998567289
H      0.931587050978      2.858117952473      1.530690813892
H     -0.617489258375      2.399863432461      2.412506585069
C      0.431805829924     -1.350187057618     -0.460449199374
H      1.335965917915     -1.464572883881      0.122036475651
C     -0.480131829153     -2.302236337502     -0.503209025225
H     -1.387637014900     -2.193777964291     -1.075398350872
H     -0.353844308904     -3.235337224536      0.018193092958
