14
OptimizedStructure
C      1.100212775464     -1.569873666897     -1.565293740488
H      1.873286913709     -2.307702138477     -1.694342552495
H      0.747970957794     -1.086618447698     -2.461922859729
O     -0.955453065287      3.022347117984      1.103820675194
C     -1.051711927552      1.828697100202      1.125536039300
H     -2.002172957767      1.337291610983      1.419962782313
C      0.038150079174      0.858150009870      0.783165120118
H      0.874225966557      1.388796312843      0.324891373631
H      0.384300241234      0.417860413877      1.723681226783
C      0.604381301425     -1.275692888419     -0.378847695996
H      0.976290232394     -1.772659520129      0.508156336384
C     -0.467599857309     -0.260285374604     -0.137350585603
H     -0.795588911510      0.166858207044     -1.086500078925
H     -1.326291748326     -0.747168736579      0.335043959514
