14
OptimizedStructure
C      1.151518002674     -2.117414475220     -0.561850793894
H      1.859531395653     -2.604501616834     -1.210041422687
H      0.977737009500     -2.586717501118      0.392669988315
O     -0.802546770471      2.592854382772      1.974564290765
C     -1.016632000514      1.912906885709      1.012082385257
H     -2.042349246469      1.811403781351      0.600812115782
C      0.010872777179      1.136186409097      0.245324400502
H      0.176666221742      1.665704244684     -0.698268583727
H      0.950774691121      1.120543611075      0.799366367180
C      0.524616608676     -1.011819738997     -0.914982504926
H      0.717794780029     -0.557129972981     -1.878314740310
C     -0.466703154480     -0.290027890600     -0.057766856436
H     -1.426618434923     -0.238872106380     -0.580748623545
H     -0.614661879719     -0.833116012558      0.877153977726
