14
OptimizedStructure
C      0.843425731032     -0.815546864146      0.545442670835
H      1.713488318757     -0.142453634202      0.533809302833
H      1.146575660317     -1.748093946591      1.036938692735
O     -0.170354206096     -0.283640913890      1.368898761421
C     -0.525328703512      1.010419447550      1.186197067543
H     -1.265812773464      1.282597198085      1.927427711677
C     -0.084905639770      1.878268707416      0.289692770144
H     -0.460067781784      2.883984718633      0.288684897750
H      0.635125128347      1.631265223145     -0.469228326868
C      0.424886212815     -1.121722183194     -0.865416774838
H      1.244815087469     -1.416638617410     -1.506907467225
C     -0.812948279033     -1.069194741727     -1.316799330362
H     -1.055599133691     -1.308201178908     -2.337549005659
H     -1.633299621386     -0.781043214761     -0.681190969985
