14
OptimizedStructure
C     -0.536402873918     -0.119282879744     -0.893186244859
H     -0.033892222631      0.473498605048     -1.675782708528
H     -1.488319764963     -0.483184029245     -1.287442678610
O     -0.864580968048      0.709094521583      0.202225805639
C      0.116475315964      1.536760206402      0.644966827682
H      0.970862480279      1.654713287912     -0.016833833520
C      0.030597217100      2.189263956762      1.792282840808
H     -0.817663839147      2.065853890855      2.440024584006
H      0.802900628446      2.868486497276      2.097881685779
C      0.347345724034     -1.268208523343     -0.498472441434
H      1.180281336186     -1.000173396420      0.138807600805
C      0.152355140826     -2.517826161576     -0.871437127480
H     -0.677451780034     -2.798843537095     -1.498865692590
H      0.817493605906     -3.310152438415     -0.574168617697
