14
OptimizedStructure
C     -0.473712721325     -0.384011521235     -0.304409009425
H     -0.484575098294     -0.017498366405     -1.340871686200
H     -1.515330784844     -0.419187542266      0.058316442186
O      0.287968694613      0.477373395874      0.519049729641
C     -0.153093369232      1.757556994676      0.612311941620
H     -1.060711899463      1.988308616447      0.062015696017
C      0.477890301080      2.671844887614      1.330329354806
H      1.375546486647      2.432775042615      1.870056203549
H      0.105971863112      3.676298142144      1.390350047150
C      0.117919312909     -1.757712075028     -0.236285346612
H      0.429444484940     -2.056571542356      0.754169553743
C      0.259906708935     -2.558663673148     -1.274149453980
H     -0.040857360400     -2.263568435802     -2.266244327449
H      0.673633381321     -3.546943923130     -1.174639145045
