14
OptimizedStructure
C      0.980018481564     -1.583536618482     -1.642744837943
H      1.676139074044     -2.389296468040     -1.802096668375
H      0.705806076332     -1.011565118719     -2.514124457964
O     -2.016694051960      1.963390430688      0.801304885941
C     -0.896190473936      1.861238826639      1.211253220288
H     -0.479768135584      2.599352629617      1.928172440465
C      0.077172720932      0.778950297625      0.850159719702
H      0.984465324145      1.253690675126      0.465776100352
H      0.357066859423      0.264625147024      1.774701725695
C      0.480184380104     -1.313503963603     -0.452005893532
H      0.771074679279     -1.904131245606      0.407949678403
C     -0.488650427151     -0.210647458633     -0.170378816843
H     -0.735678536702      0.320847373499     -1.090340479212
H     -1.414945970491     -0.629414507135      0.232373383023
