14
OptimizedStructure
C      1.170402439699     -1.567657275036     -1.529458521781
H      1.825805630888     -2.418294639658     -1.607487606326
H      1.114101420809     -0.928629014416     -2.395552832195
O     -1.991722764544      2.076811058256      0.532861711981
C     -0.983912743319      1.860467904705      1.142399127385
H     -0.665931262546      2.521757252425      1.975331885783
C     -0.037131255291      0.722704268948      0.901005365183
H      0.959205898523      1.141077068391      0.731932860993
H      0.018312831515      0.137690970781      1.824224910971
C      0.466138741061     -1.322220820141     -0.441164172964
H      0.539685620940     -1.980571006775      0.415659735471
C     -0.459119278941     -0.160057851546     -0.275266540632
H     -0.482118441555      0.439080865480     -1.186498088003
H     -1.473716837238     -0.522158781413     -0.087987835867
