14
OptimizedStructure
C     -0.414017757604     -1.639268743267     -1.647955668628
H     -0.092027477945     -1.820030465435     -2.659230902364
H     -1.311141856404     -2.150108247258     -1.336084715428
O      1.946453208865      1.367865513954      0.795312940100
C      0.819648144648      1.773031035115      0.799783034595
H      0.605058439969      2.861760520097      0.834157521056
C     -0.424336313286      0.933212786482      0.785334974646
H     -0.925935480772      1.101357547431      1.743609403732
H     -1.089738976794      1.314313370598      0.006260662865
C      0.253624465861     -0.847434989917     -0.831168354823
H      1.153047174319     -0.346101376432     -1.161616658091
C     -0.148345098951     -0.559979472857      0.581554510589
H     -1.038161575104     -1.136384612600      0.840280423870
H      0.665873103199     -0.852232865910      1.249762827882
