14
OptimizedStructure
C      1.401638767807     -1.953308763670     -0.524153061578
H      1.967671904148     -2.479764833235     -1.273231566944
H      1.678004776153     -2.141268302155      0.500696499031
O     -1.743304683009      2.851328979462      0.743400298195
C     -1.022849322792      1.921088251264      0.968053674291
H     -0.861723878864      1.560252596603      2.004583554183
C     -0.259927308141      1.140750067274     -0.059874040556
H     -0.594866970994      1.425458911648     -1.058658415845
H      0.794474359305      1.416011709199      0.041797491098
C      0.418948767379     -1.131370690078     -0.838664951425
H      0.160265450512     -0.958859285638     -1.875189056736
C     -0.400135722151     -0.372203727002      0.157279719291
H     -1.452223744228     -0.648268467448      0.043252915613
H     -0.085972395125     -0.629846446225      1.170706941383
