14
OptimizedStructure
C     -0.064632556044     -0.348105938929      0.081464679493
H     -1.007525457865     -0.053319767360     -0.398324150974
H     -0.257205712386     -0.508302251285      1.155036132235
O      0.906465098228      0.670635465830     -0.074384159885
C      0.621800297092      1.888055904525      0.437511109060
H      1.446785012257      2.560490449423      0.241504960847
C     -0.461644355012      2.283223123660      1.087624470536
H     -1.297339414909      1.640253605608      1.296650946083
H     -0.536817313138      3.295740512125      1.436004268026
C      0.470040592037     -1.608702372656     -0.523070413851
H      1.508945979631     -1.803868260963     -0.298633925692
C     -0.238375724333     -2.433777690875     -1.269064882165
H     -1.272720863825     -2.242190587911     -1.503856913665
H      0.182224418266     -3.340132191192     -1.668462120047
