14
OptimizedStructure
C      0.877598144815     -0.819347962821     -1.401920123574
H      1.461592189171     -1.403369542026     -2.092465519899
H      0.860335720160      0.241780744357     -1.586468041342
O      1.346420293673      1.332553053981      1.243059591498
C      0.391195024486      1.635946838463      0.587723254023
H      0.328424416804      2.631733588698      0.100133434629
C     -0.831316153084      0.789509468215      0.370661616601
H     -1.588726687707      1.172686735490      1.062639181942
H     -1.212147532577      0.942767969460     -0.640337624560
C      0.245576906141     -1.382223603057     -0.390155301332
H      0.314673935710     -2.453667624974     -0.248695565213
C     -0.583501696320     -0.690440506204      0.648696985280
H     -1.540369134040     -1.212673191935      0.736860776551
H     -0.069755427231     -0.785255967647      1.610267335394
