14
OptimizedStructure
C      1.296196338270     -1.322486149637     -1.146396020073
H      1.569747574093     -1.540557107665     -2.164498173718
H      2.075036579413     -1.433792481566     -0.409555414968
O      0.123192501653      2.870333979514      1.017838413001
C      0.032275649654      1.833572855676      0.423769254888
H      0.712470431565      1.590211308216     -0.416546033730
C     -0.977098425312      0.759338151357      0.702792192258
H     -1.411200973782      0.916642133896      1.691667685639
H     -1.773944751783      0.872630523727     -0.039310583590
C      0.076083307076     -0.945402791647     -0.813994865388
H     -0.688614800432     -0.841771030028     -1.573825652751
C     -0.369891543532     -0.644255967401      0.582241214907
H     -1.133545156101     -1.371691740259      0.872709645055
H      0.469293269217     -0.742771684183      1.273108338470
