14
OptimizedStructure
C      0.121838412535     -0.950133665137      0.685332463539
H      0.469782742415     -1.886158287590      1.138805192468
H     -0.974279590201     -0.920573062103      0.743210171893
O      0.687595754081      0.060211540989      1.497822495717
C      0.283017908536      1.336839758327      1.296545460249
H      0.774031239326      1.981205886026      2.014437566911
C     -0.572456613658      1.808456335430      0.404287244076
H     -0.797090005548      2.858003222541      0.381929616030
H     -1.063061794673      1.192997436100     -0.327206084495
C      0.582039805368     -0.893118868539     -0.742903166653
H      1.600134418994     -0.551842528263     -0.871746282131
C     -0.158082561684     -1.242336583389     -1.777376267938
H      0.221217566560     -1.211931755720     -2.783929524982
H     -1.174687282052     -1.581619428675     -1.659208884684
