14
OptimizedStructure
C      0.544439839375     -0.976078245786      0.479531419603
H      1.414144695946     -1.603170921509      0.705159447917
H     -0.292826249156     -1.292341686843      1.117639374871
O      0.953614707916      0.336538435523      0.810426105155
C     -0.005372740389      1.295294261176      0.711590736942
H     -1.000248489682      0.943598877355      0.456338152057
C      0.252918787609      2.575437703353      0.919530711560
H     -0.524538121345      3.311301186915      0.849101975365
H      1.243305609127      2.910505289693      1.167418064413
C      0.179351139420     -1.117424400999     -0.969880191976
H      0.878933751387     -0.658039117566     -1.655028545459
C     -0.905177206892     -1.728462106391     -1.406100055821
H     -1.126935336039     -1.814350014160     -2.455829828118
H     -1.611610387277     -2.182809260761     -0.729897366510
