14
OptimizedStructure
C      0.133152259700      0.081266865383     -1.167450933281
H      0.477544003451     -0.043826256624     -2.201177325979
H     -0.955437433354      0.224711810015     -1.177158068607
O      0.783200418800      1.257216375824     -0.725186223107
C      0.409861598872      1.778035004134      0.467852824019
H      0.967003882548      2.688712539355      0.646533457862
C     -0.484302598458      1.324761198351      1.331214098293
H     -1.040929966177      0.417488472357      1.184296370544
H     -0.674423196014      1.867037518371      2.238021805589
C      0.503134667938     -1.138322765635     -0.373343337185
H      1.521863458766     -1.143948469554     -0.010380970218
C     -0.312685575971     -2.147352287224     -0.136356403703
H     -1.330540686827     -2.149888311304     -0.492054107728
H      0.002559166726     -3.015891693448      0.415188813501
