14
OptimizedStructure
C      0.895986551714     -1.839644355325     -1.012651222334
H      1.235940471179     -2.122151238713     -1.994200517561
H      1.337892035235     -2.370346356689     -0.184745070286
O     -1.008360342750      2.989770615596      0.500095214663
C     -0.442631362550      2.013933646472      0.094868813640
H     -0.245691064206      1.878770923149     -0.986249071515
C      0.061829551794      0.890585691156      0.950576167789
H      1.150832006782      0.861088610019      0.857613874307
H     -0.200045945022      1.090863016327      1.991118899879
C     -0.014447157380     -0.902192289927     -0.828498301054
H     -0.445541477941     -0.391264873850     -1.678759949884
C     -0.509744444472     -0.473747733038      0.518043456422
H     -1.600510360586     -0.411300006102      0.508678673061
H     -0.215508461797     -1.214365649076      1.264109032875
