14
OptimizedStructure
C      1.266891825299     -1.351211099547     -1.129620960820
H      1.599019144398     -1.562961287376     -2.131765996425
H      1.999350092940     -1.464190507561     -0.348271188894
O      1.346752379673      1.516885337949      0.705715191404
C      0.185254332085      1.784104294152      0.597278353442
H     -0.152151197019      2.838459343837      0.508279486154
C     -0.952625788633      0.803963189813      0.591161536575
H     -1.515238432756      0.971244276480      1.515202860394
H     -1.619113274838      1.053000857766     -0.238590868373
C      0.033651200244     -0.964785212796     -0.868381873639
H     -0.685542353595     -0.846478203480     -1.670185650888
C     -0.483261717949     -0.650386420781      0.501130210913
H     -1.325360765035     -1.309680733143      0.729289428712
H      0.302374555186     -0.817963835313      1.238759471447
