14
OptimizedStructure
C      0.591473759937     -1.104293952401     -1.771306958445
H      1.461331057505     -1.451734720206     -2.302413824689
H     -0.230945353777     -0.757499716360     -2.373907133754
O     -0.297950231586      2.006243778099     -0.706321420170
C     -0.043424634643      1.835540963042      0.450536515855
H      0.378877067608      2.655467101987      1.069254104253
C     -0.262724415198      0.569862445958      1.228643410914
H      0.642620947315      0.355288722172      1.802248017980
H     -1.057529456383      0.780136458320      1.951442090095
C      0.534400728947     -1.092811850638     -0.454088548804
H      1.377078079029     -1.435812353388      0.134443733271
C     -0.642952624121     -0.616178436282      0.338545406370
H     -1.443420479091     -0.312829125084     -0.337201483427
H     -1.006834445542     -1.431379315221      0.970126090553
