14
OptimizedStructure
C      1.481930311789     -1.465409519227     -0.706268195723
H      2.019917728493     -2.279904338434     -1.160186929511
H      2.077965410891     -0.761899586055     -0.151282715720
O     -0.944467141496      2.318644156844      2.113742780255
C     -0.883053822820      1.867467685946      1.005642833175
H     -1.537878286811      2.252352923980      0.196316301435
C      0.042523377488      0.778025236776      0.555599861689
H      0.802617748998      1.246485715062     -0.076894773744
H      0.532253596519      0.333886095239      1.423039431828
C      0.173284709852     -1.355696023427     -0.831574357644
H     -0.372967261612     -2.098414121863     -1.400082964539
C     -0.700323096691     -0.281362540769     -0.258317180162
H     -1.234361951122      0.202512423346     -1.083160313293
H     -1.457441323479     -0.756688107419      0.373426221954
