14
OptimizedStructure
C      1.499838026218     -1.302932834750     -0.946155101386
H      2.064811692182     -2.105642628036     -1.388123649684
H      2.021476215377     -0.368036055598     -0.836361915647
O     -1.186473325546      2.981778635206      0.661298792864
C     -0.945160556309      1.851807075569      0.977762954011
H     -1.413310939230      1.399165075613      1.876590912695
C     -0.016894266840      0.921615551211      0.257219528022
H      0.275029003705      1.363646464620     -0.696161878745
H      0.874185304877      0.812597401341      0.882791532864
C      0.246456111922     -1.473700698383     -0.571770125965
H     -0.226122386940     -2.438212463094     -0.711805984903
C     -0.654795856880     -0.452476183276      0.053411607633
H     -1.543217405865     -0.348027582338     -0.577508157934
H     -0.995821616670     -0.841581758087      1.018811486175
