14
OptimizedStructure
C     -0.413530635969     -0.142469346581     -0.411774097131
H     -1.083164130699     -0.029955102640     -1.272744312047
H     -1.003597112661     -0.033510789389      0.503657673226
O      0.583434031502      0.864734091113     -0.496914009555
C      0.674752005933      1.831658416638      0.441352538291
H      1.519798205187      2.463544346478      0.196388186110
C     -0.069356832625      2.078597966178      1.508044357484
H     -0.921621515892      1.493156881121      1.804601048275
H      0.170974640870      2.912701985888      2.138814061749
C      0.232760005826     -1.495708536671     -0.420677736395
H      1.055297021519     -1.604563352091      0.273039266319
C     -0.139117074541     -2.492865734579     -1.199689840352
H     -0.951614863974     -2.391980986929     -1.900464441034
H      0.344986255524     -3.453339838536     -1.163632694941
