14
OptimizedStructure
C     -0.543454166308      0.080579820497     -1.218970148036
H      0.142839077605      0.741920749930     -1.767508450734
H     -1.404617399235     -0.124946325384     -1.868190237255
O     -1.072445073532      0.753380700307     -0.089852663097
C     -0.192206047885      1.601009101349      0.540918197096
H     -0.277767000996      2.637851764446      0.219798823648
C      0.664035651587      1.240578532348      1.477968758817
H      0.760595433435      0.218034899420      1.797226163625
H      1.294874511849      1.968642389164      1.955117454463
C      0.148699890413     -1.217592664416     -0.903555250379
H      0.825131900466     -1.562435284398     -1.674089678703
C     -0.054507346480     -1.916701991850      0.196209066978
H     -0.741473256454     -1.571723000894      0.951184009562
H      0.450293825534     -2.848598690519      0.383743954014
