14
OptimizedStructure
C      1.733431316406     -0.616180822905     -0.408119373811
H      2.615993884923     -0.992024736994     -0.896826135350
H      1.887095324992      0.217532172184      0.254857416633
O     -1.417981528101      2.213821567099     -0.649808610624
C     -0.550492199809      1.713046911299      0.008825674922
H      0.475219312893      2.129600667769     -0.002547861574
C     -0.737018145589      0.493983794141      0.868837147664
H      0.048083123468      0.416668798445      1.619374780563
H     -1.707320885442      0.571683298696      1.363592313284
C      0.550271642466     -1.159377107182     -0.620766339484
H      0.469519295233     -2.002700846669     -1.296177464909
C     -0.760048628125     -0.765305052009     -0.012511129842
H     -1.486371990940     -0.613556965484     -0.816605883309
H     -1.120380522375     -1.607191678391      0.587875465835
