14
OptimizedStructure
C      0.491901500495     -1.136951865731     -1.806092277534
H      1.317679479673     -1.292820721526     -2.478025240768
H     -0.492497760684     -1.175019936500     -2.243363884118
O      0.394870343929      1.954308129742     -0.606933512174
C     -0.261321294164      1.818542374297      0.385492992450
H     -0.942984391625      2.625181454749      0.726404989633
C     -0.254244713233      0.602893712784      1.272711194272
H      0.717336436010      0.570836486319      1.774298913505
H     -1.032831358042      0.685407775625      2.031400463291
C      0.672259228513     -0.902854295331     -0.520705245631
H      1.671261040722     -0.861923552605     -0.107101362305
C     -0.434607134667     -0.692013887251      0.462483011433
H     -1.394174817427     -0.666197114096     -0.057674700434
H     -0.452646559500     -1.529388560474      1.167104658379
