14
OptimizedStructure
C     -0.264954044486     -0.305510189811     -0.190589086248
H     -0.789362270963     -0.015688752471     -1.113595061422
H     -0.999695245724     -0.306526894839      0.632483028868
O      0.773468024849      0.618003916430      0.098863923796
C      0.347565809496      1.909380678697      0.293150478830
H      0.421088868156      2.543168685717     -0.587886589443
C     -0.085227354104      2.369588980350      1.451880408683
H     -0.153620101010      1.733700004974      2.318292184979
H     -0.371014507289      3.398335541261      1.571704268674
C      0.334386090637     -1.669583686944     -0.325233794214
H      1.086016462415     -1.897553624036      0.416671213460
C     -0.000555802252     -2.541097825714     -1.256672306682
H     -0.742398941087     -2.316335581940     -2.005649334913
H      0.444303011363     -3.519881251675     -1.303419334368
