14
OptimizedStructure
C      1.450586389547     -1.399286676755     -0.959476834172
H      2.003986354748     -2.291501704451     -1.195604893463
H      2.002913615086     -0.475771731284     -1.015284967071
O     -1.100168089301      2.349406075800      2.071850862444
C     -0.861375635601      1.895319173328      0.989233721640
H     -1.272429343280      2.363473771970      0.070771914977
C     -0.009701910084      0.693604253723      0.713872824086
H      0.933093240832      1.061407118890      0.300598540100
H      0.206149764032      0.171304743706      1.647169883256
C      0.174017849951     -1.443674426214     -0.627345450396
H     -0.333835492253     -2.398079765999     -0.594972933529
C     -0.675973887339     -0.248206881683     -0.295995815920
H     -0.886439464285      0.307229195471     -1.215638227453
H     -1.630823392052     -0.585223146503      0.110821375501
