14
OptimizedStructure
C      0.908864927541     -1.204759455566      0.647061262591
H      1.968807269108     -0.900212257454      0.598124258942
H      0.875206683753     -2.175321616591      1.160515505434
O      0.169298542020     -0.281642017424      1.423886672229
C     -0.664508077910      0.491968716250      0.582613228147
H     -1.633602617463      0.588823572307      1.077276538143
C     -0.138355370267      1.774853071034      0.082357119395
H     -0.765729668499      2.644040985197      0.047465091924
H      0.924029667939      1.906068522079      0.005086024928
C      0.288583302361     -1.241183422283     -0.710133306507
H      0.895185431996     -1.534009094184     -1.550705546856
C     -0.716162416440     -0.233437715297     -0.795117396653
H     -0.384269280990      0.638702465360     -1.472538450423
H     -1.727348393150     -0.473891753429     -1.095891001295
