14
OptimizedStructure
C      0.540540596840     -0.892286770513     -1.550297058717
H      0.509417431476     -1.333558639065     -2.531418846317
H      1.260311182300     -0.102388895169     -1.409136855969
O      0.408844074705      2.568751006931     -0.464845758344
C      0.513717323924      1.642989328177      0.288714080160
H      1.499882662820      1.360619333028      0.713571702183
C     -0.613728395648      0.792558692464      0.792410978605
H     -0.803175229246      1.119748195634      1.819955416135
H     -1.509923512729      0.983439298810      0.200177348587
C     -0.261907112905     -1.289778093388     -0.581389727655
H     -0.976340488144     -2.080700834542     -0.765163393342
C     -0.271995978258     -0.703104222954      0.803611937763
H     -1.005266035341     -1.228363037832      1.416519866062
H      0.709623480205     -0.837925361580      1.267290310850
