14
OptimizedStructure
C      0.392977585638     -1.940836111487     -1.374876325277
H      0.582364753380     -2.982315089093     -1.181594722003
H      0.196277241365     -1.673742755312     -2.400485215551
O     -1.931873347086      0.273826629490      1.310452851876
C     -0.971571491643      0.936124869922      1.579150671160
H     -0.873877827487      1.425164032594      2.571437665087
C      0.188098441391      1.222953322618      0.668309889620
H      0.166027417786      2.297793233927      0.461986016876
H      1.114141193388      1.024605617096      1.214363218673
C      0.396030053521     -1.039084685585     -0.411667919252
H      0.590079906830     -1.339322633891      0.609320450944
C      0.135234939451      0.424149926451     -0.630740139705
H      0.869444300816      0.823637214028     -1.335376874300
H     -0.853353167350      0.547046429242     -1.080279568147
