14
OptimizedStructure
C      1.384960737803     -1.700448412779     -0.488950188476
H      1.991551199664     -2.375396636130     -1.067711314241
H      1.773628601663     -1.427836814933      0.477744250325
O     -0.759528177782      2.456799225594      2.020582930057
C     -0.889270600618      1.908083243867      0.963650605177
H     -1.763642663565      2.120496259009      0.314184911770
C      0.061837705787      0.908644710898      0.377186421656
H      0.596996037355      1.411729037219     -0.434310492809
H      0.787674228646      0.613124257142      1.134305863408
C      0.232832720270     -1.243277363430     -0.942451417156
H     -0.117926013156     -1.555948425242     -1.916957806357
C     -0.677067853793     -0.306827451036     -0.196336486965
H     -1.466923015900      0.040004068706     -0.865742373473
H     -1.155122906372     -0.849145698886      0.624805097085
