14
OptimizedStructure
C      1.505584772274     -1.260782072901     -1.000953668013
H      2.054844173887     -2.029902729858     -1.516448590591
H      2.059986029338     -0.369659494733     -0.761946318169
O     -1.935901209983      2.235988429805      0.468259496033
C     -0.974007979090      1.798099029635      1.033944831749
H     -0.781252804733      2.050571726830      2.096058530789
C      0.036288940360      0.873680136122      0.413279529646
H      0.421529890494      1.346834675193     -0.492859341860
H      0.858141213736      0.682740321668      1.102088230719
C      0.233020203456     -1.418504052834     -0.690668096371
H     -0.271386704889     -2.339524374058     -0.956160211406
C     -0.650669561660     -0.439661893761      0.017655364413
H     -1.503816293486     -0.207013848692     -0.626771375658
H     -1.052360669704     -0.922865852415      0.914521618718
