14
OptimizedStructure
C      1.019836119476     -1.727643231394     -1.616849846686
H      1.680701745795     -2.575133541204     -1.670049548944
H      0.582948553815     -1.403825058856     -2.547495578900
O     -1.949496240676      2.006775481863      2.022045718410
C     -1.106207373173      1.802247078854      1.196287193091
H     -0.872382740603      2.559411346234      0.419405898637
C     -0.268306457917      0.563164808534      1.091302875326
H      0.729924539439      0.825140485543      1.457153388564
H     -0.679841303367     -0.211226226995      1.741016170329
C      0.756582291937     -1.117136644833     -0.476949073385
H      1.208645924846     -1.465872495911      0.441638338841
C     -0.158634596062      0.068343155887     -0.351376200287
H      0.208983285495      0.878353030659     -0.988438218332
H     -1.152753749005     -0.202598188381     -0.717691116663
