14
OptimizedStructure
C      1.178216173560     -1.438830480068     -1.604349634377
H      1.966017655845     -2.154268378798     -1.767414762898
H      0.856076287638     -0.878605186197     -2.466765271870
O     -1.557098261324      2.486933017186      0.259462993711
C     -1.101277255302      1.780109207822      1.112936917970
H     -1.489376877829      1.826219285089      2.150512692980
C     -0.010055999853      0.768378792865      0.895177628629
H      0.863058479946      1.286032277570      0.490237790778
H      0.264695508467      0.287890319187      1.833909825637
C      0.628482693069     -1.260690256687     -0.418416123622
H      0.968902189422     -1.833665483991      0.434838377838
C     -0.466134829574     -0.282293369260     -0.134855787113
H     -0.767281773127      0.226766714080     -1.051194095209
H     -1.334223990937     -0.813976458799      0.265919447548
