14
OptimizedStructure
C      0.498384249559     -0.231961612576     -1.485200754484
H      1.333657370031     -0.259568716574     -2.193232306259
H     -0.374874720518     -0.667858662619     -1.996712539776
O      0.197866825257      1.128716056250     -1.302128663691
C     -0.148761512493      1.503214764336     -0.069046196913
H     -0.442868793754      2.543340218309     -0.043354582571
C     -0.594522801351      0.623362401710      1.032210361180
H     -0.298427491823      1.083616471358      1.978640409847
H     -1.696838061125      0.599255661351      1.041671844383
C      0.817294292757     -0.978634450553     -0.247962489277
H      1.176069192396     -1.983927843533     -0.422863470515
C     -0.060733087121     -0.805360408449      0.939409935817
H     -0.912250657284     -1.510152793033      0.924978584878
H      0.506005195467     -1.044041085977      1.843589867382
