14
OptimizedStructure
C      0.785307964242     -0.746631231981     -1.541709364793
H      1.397970628926     -1.297226870393     -2.234889408521
H      0.601425202941      0.282372943863     -1.797767387123
O      0.828349852611      1.776321776364      1.868818002080
C      0.423361488440      1.575804493527      0.758462860009
H      0.988611901794      1.941432162495     -0.120478573232
C     -0.831235994405      0.810897814628      0.439983125668
H     -1.595343169984      1.092212313849      1.167519885028
H     -1.186139644722      1.035658213532     -0.564603684574
C      0.299539978530     -1.317062909716     -0.455990674693
H      0.518614491401     -2.360645448150     -0.264058716854
C     -0.573130542427     -0.696979805215      0.590981066281
H     -1.535022377554     -1.220200275031      0.582001768683
H     -0.122309779794     -0.875953177773      1.571731102041
