14
OptimizedStructure
C      1.260617870009     -1.293467660905     -1.212175223460
H      1.510188085897     -1.475279845158     -2.243368177111
H      2.056525771953     -1.433667708013     -0.498510191941
O     -0.186531501582      3.000507033467      0.508904497042
C      0.046473920019      1.826277769470      0.445842266875
H      1.049409981793      1.458811357093      0.152220962251
C     -0.945509819462      0.736741184762      0.740719361120
H     -1.314975437919      0.885273044896      1.759174808066
H     -1.802429940205      0.876323399446      0.075429345941
C      0.049131553026     -0.928513591015     -0.838400193851
H     -0.732400515304     -0.796417372838     -1.575796621676
C     -0.361591571402     -0.666966709183      0.577222608727
H     -1.123347871490     -1.397050286573      0.865735524378
H      0.494439474667     -0.792570615449      1.243001033639
