14
OptimizedStructure
C     -0.124330115559     -1.068360534062     -1.901861250046
H      0.472005017962     -1.117927678135     -2.796614168181
H     -1.176258694607     -1.273738711241     -2.018330544878
O      1.429918186155      2.289372109923      1.090568373942
C      0.569231925586      1.645725826130      0.560666987410
H      0.345584495984      1.764924930326     -0.517654525185
C     -0.321816279552      0.655813672798      1.253406432796
H     -0.002504250533      0.559423812430      2.291727229304
H     -1.320300395761      1.101356082286      1.245506224959
C      0.399763507170     -0.778053214835     -0.726322986159
H      1.460031889114     -0.578763678616     -0.632729808760
C     -0.374212812726     -0.724466874086      0.555008378683
H     -1.409911370356     -1.008126256561      0.363089476011
H      0.052798897122     -1.467179486358      1.233540180103
