14
OptimizedStructure
C      1.401393952652     -0.971740890607     -1.161684683464
H      2.060059437005     -1.648845562999     -1.677129944171
H      1.806908449339      0.003412663725     -0.945027171538
O     -0.725035965504      2.646350073987      1.721904649167
C     -0.456863105196      1.873657286679      0.846469843835
H     -0.338073174632      2.217713493473     -0.202113592685
C     -0.233454990381      0.402051443185      1.021656662264
H      0.850504093762      0.261539702403      1.061499181479
H     -0.634604896461      0.093630254295      1.987922974487
C      0.173741176508     -1.320921007843     -0.825369461891
H     -0.189971251396     -2.305684783460     -1.086198608307
C     -0.820758377134     -0.436220778201     -0.125785479935
H     -1.257535949441      0.234421339280     -0.874240978240
H     -1.636309399119     -1.049363233916      0.258096608999
