14
OptimizedStructure
C      0.375442573536      0.036739971922     -1.275442219657
H      1.062957172184     -0.058587795429     -2.122634666086
H     -0.653540489149      0.109005584950     -1.655699482082
O      0.754224582537      1.254304602349     -0.647145829321
C     -0.125242350909      1.703239337871      0.309722936067
H     -0.829354335590      2.449040043055     -0.053038648066
C     -0.115713949598      1.311035169680      1.569494285716
H      0.580211285735      0.571380443896      1.925195552610
H     -0.802650815114      1.726194934206      2.284169963818
C      0.513890091949     -1.152088050800     -0.371725985589
H      1.497678272129     -1.280067854249      0.058923921788
C     -0.469956075740     -1.982988708950     -0.085270599924
H     -1.455732911849     -1.858941810307     -0.503721031006
H     -0.332213050119     -2.828265868196      0.567171801733
