14
OptimizedStructure
C      1.093891216406     -1.184729860112     -1.654956377612
H      1.943166680917     -1.790874062397     -1.921353922976
H      0.730180767306     -0.511145515860     -2.413280443719
O     -0.894765662108      2.398445008266     -0.210354666345
C     -0.490858757085      1.941630441230      0.819971218640
H     -0.210900747497      2.602521102653      1.665943741300
C     -0.305832082037      0.485006058948      1.134485848129
H      0.737385329488      0.354732498162      1.436980276671
H     -0.913677325347      0.268811680912      2.016805298525
C      0.522712627983     -1.259930025128     -0.468352895487
H      0.905579930764     -1.942467400810      0.280935060673
C     -0.653819798213     -0.437972832170     -0.044118966353
H     -0.990180888447      0.179814916701     -0.879219528071
H     -1.472881292129     -1.103842010395      0.236515356625
