14
OptimizedStructure
C      1.501279366481     -1.480863481590     -0.641456872402
H      2.039605900139     -2.332040142545     -1.021811739856
H      2.103501734586     -0.702936426364     -0.204717786263
O     -1.730157432295      1.655674107354      1.797757001066
C     -0.926633344042      1.875279470450      0.935719527534
H     -0.882566639553      2.868922784143      0.446112591734
C      0.063921319093      0.871846817809      0.413799940446
H      0.737102088370      1.333996514276     -0.307034429145
H      0.640618058991      0.489083597894      1.258954920113
C      0.185701524563     -1.413724949297     -0.714402521879
H     -0.366458777822     -2.228065217350     -1.167346715539
C     -0.688990592938     -0.300707892242     -0.227711893922
H     -1.281413936788      0.067586283653     -1.071870813032
H     -1.395509268786     -0.704051466191      0.504008791142
