14
OptimizedStructure
C      1.124272456223     -2.100515799746     -0.712205706452
H      1.279348992394     -2.710208170013     -1.585579369747
H      1.781546719119     -2.286770640285      0.121592736186
O     -1.627863404480      2.866333936281     -0.220134228991
C     -1.189715495643      1.978826032731      0.454522467500
H     -1.689851107665      1.679476290401      1.399059429865
C      0.046211708341      1.184839482291      0.151841724588
H      0.293718781569      1.305408153038     -0.904675289596
H      0.855198888304      1.643199209061      0.726805324873
C      0.179360389620     -1.181647888112     -0.659151945296
H     -0.468942117352     -1.011821418641     -1.509024989415
C     -0.084957829456     -0.305224344721      0.524911806682
H     -1.101436334108     -0.499145569776      0.881185857873
H      0.603108353134     -0.562749272510      1.330852181930
