14
OptimizedStructure
C     -0.345287530336      0.014081500040     -1.046001797118
H      0.356697043788      0.701836883984     -1.543055671060
H     -1.343001379729      0.193880102538     -1.480109152099
O     -0.392103303898      0.264461037792      0.338764618777
C      0.022248743935      1.478364938799      0.772146166378
H      0.466850460252      2.126877798714      0.021056277776
C     -0.089111789057      1.855816180068      2.035407053188
H     -0.531120467367      1.211303975182      2.772546992506
H      0.265413910359      2.816596110938      2.354426729270
C      0.064708145129     -1.399545757901     -1.339908281525
H      0.069352851228     -1.639861280671     -2.394736662077
C      0.393250216968     -2.290204153841     -0.425100494033
H      0.381347810015     -2.040143808549      0.621625323935
H      0.680755288711     -3.293463527092     -0.687061103917
