14
OptimizedStructure
C      0.221244348777      0.004560748731     -0.935344248141
H      0.752661246362      0.416879367094     -1.805860800720
H     -0.847053230862      0.194842514702     -1.079325878016
O      0.713379609789      0.652530527725      0.220707312704
C     -0.084626599847      1.459414899685      0.952551227649
H      0.479747575125      1.812273087173      1.807287124267
C     -1.338193097893      1.842124187640      0.766137016985
H     -1.952457455432      1.534904149649     -0.061414739657
H     -1.800208358885      2.501525327376      1.475451425258
C      0.443464419334     -1.480007294337     -0.882293249655
H      0.148151435359     -1.994937185937     -1.786870609852
C      0.943993905926     -2.131543593688      0.148841148300
H      1.240143661822     -1.613725360327      1.044987356416
H      1.079752540425     -3.198841375486      0.135146914462
