14
OptimizedStructure
C     -0.503705289927      0.036150303595     -1.098224351702
H      0.057259675800      0.659100754752     -1.812845210990
H     -1.327754819213     -0.454904780628     -1.621726075679
O     -1.151144030071      0.875035895995     -0.147857181635
C     -0.358596791173      1.734696367860      0.570179084477
H     -0.458075075747      2.772659698633      0.259811948386
C      0.409346807744      1.392830150690      1.588749817386
H      0.497014331641      0.371425074298      1.916753971675
H      0.967482424641      2.134770103445      2.130421447738
C      0.415885355500     -0.989584689393     -0.501477113722
H      1.361915288159     -0.614673054621     -0.134673127488
C      0.116567258261     -2.271388688375     -0.407945738882
H     -0.821431753878     -2.660595559252     -0.768447868388
H      0.795236618262     -2.985521576997      0.027280398823
