14
OptimizedStructure
C      1.511100217192     -1.043883539618     -0.910878620882
H      2.103164873407     -0.991579623062     -1.808256819620
H      2.025917263830     -1.357635810138     -0.017613567029
O      0.699314331688      2.413791787656      0.653362610129
C     -0.154449573795      1.700502408204      0.209863115625
H     -0.514402660394      1.824386653757     -0.829646603114
C     -0.849270798404      0.607385810288      0.972157099461
H     -0.480130448796      0.613791728759      1.998028520860
H     -1.913782411095      0.851677773010      0.985088718940
C      0.227936853120     -0.737048717831     -0.899611357481
H     -0.265046205826     -0.430185216553     -1.812687688863
C     -0.633417721393     -0.788246451117      0.328724827801
H     -1.599289778386     -1.224378601596      0.068102972530
H     -0.157643941149     -1.438578201758      1.063366791641
