14
OptimizedStructure
C      0.901403891219     -1.772733697201     -1.502863140032
H      1.266457693944     -2.784727528183     -1.462108750300
H      1.117986604268     -1.224686730885     -2.405480163346
O     -2.084182413991      1.232602157392      1.455067665610
C     -0.912784612719      1.430706476792      1.605872274455
H     -0.537970744299      2.000041092637      2.480782128417
C      0.186708623593      0.971539855922      0.691988930325
H      0.734641730103      1.861800579377      0.374178355708
H      0.883490391753      0.382555510803      1.295427876619
C      0.219028111403     -1.232712556634     -0.511159218552
H      0.010840104928     -1.805053531415      0.384120914417
C     -0.318856795705      0.162074472182     -0.512076615099
H     -0.055655073261      0.658839337263     -1.446147795106
H     -1.411107511237      0.119754561950     -0.447602463117
