14
OptimizedStructure
C      1.511335492128     -1.377252628997     -0.696381329288
H      2.143997264233     -2.247191143641     -0.663979568554
H      1.983089499764     -0.467352381220     -1.029856041886
O     -1.050731235198      2.717727434857      1.522261847782
C     -0.752788826772      1.579570807603      1.296039251801
H     -0.892837828246      0.788864015602      2.061581555777
C     -0.158492518587      1.072575692995      0.016243457829
H     -0.294803654837      1.824532502722     -0.761681468380
H      0.914487949355      0.978608370536      0.202690127851
C      0.237949121296     -1.436220383899     -0.354395629410
H     -0.185207321530     -2.384312392214     -0.049580635966
C     -0.737628287874     -0.292910893012     -0.391232213854
H     -1.134239812923     -0.222603377451     -1.407868120233
H     -1.584129840808     -0.534035623881      0.256158766531
