14
OptimizedStructure
C     -0.439840653556     -1.516164451434     -1.687465679678
H     -0.131452747966     -1.640079013561     -2.711339157111
H     -1.345273061547     -2.024593212897     -1.397618432512
O      1.778288599923      1.635769809493      1.432580641230
C      0.812272235635      1.721432912774      0.728240250770
H      0.793411974734      2.432031032353     -0.122248945500
C     -0.436868657493      0.898213255868      0.888291562347
H     -0.772775091946      0.983911850849      1.924041593564
H     -1.221964172868      1.253503019978      0.221481953214
C      0.251588798342     -0.790807781769     -0.829461594979
H      1.158155200816     -0.287423879538     -1.140693235434
C     -0.131018427970     -0.585382972937      0.601922766030
H     -1.009068985105     -1.186523953480      0.843983645547
H      0.694544989000     -0.893886615699      1.248284632512
