14
OptimizedStructure
C     -0.138713052509     -1.116875188647     -1.864083327938
H      0.519215959507     -1.522132808801     -2.612800243389
H     -1.091455007017     -0.751851698138     -2.213885810555
O      1.787569517765      1.041670013258     -0.192064272745
C      0.998880730808      1.463508114965      0.601418931436
H      1.160147733677      2.452336871372      1.085619646065
C     -0.269217324749      0.829322048309      1.092456814689
H     -0.158637319761      0.746748526626      2.177892369746
H     -1.053939785285      1.573344185700      0.927899369185
C      0.204639925086     -1.058784419770     -0.591455507064
H      1.165705885970     -1.430115019707     -0.267495724791
C     -0.692426873649     -0.528707881675      0.486565163051
H     -1.701105259490     -0.428742501910      0.080806324119
H     -0.730665130354     -1.269720241580      1.289126268191
