14
OptimizedStructure
C      1.326904037279     -1.319287281101     -1.020905701373
H      1.638397216844     -1.605213555095     -2.011049143518
H      2.097294515495     -1.287441922329     -0.268241019549
O      1.025499367553      1.983768987783      0.993560016267
C      0.063933868426      1.806448072143      0.301553566148
H     -0.079636112555      2.393059128006     -0.627759717981
C     -1.018417014936      0.798859679615      0.584200165815
H     -1.439018439267      1.020057508120      1.567976561446
H     -1.807570450351      0.861377576298     -0.164751564849
C      0.072706811515     -1.023797647358     -0.738969547261
H     -0.685076130731     -1.057054075219     -1.512172366855
C     -0.415511417773     -0.617277090531      0.615882788319
H     -1.186780191193     -1.317003520351      0.948988491262
H      0.407273939695     -0.636495859982      1.331687472130
