14
OptimizedStructure
C      1.534928380618     -1.351850243383     -0.272383345713
H      2.237773003101     -2.102302469691     -0.589913848348
H      1.948932827744     -0.527415427851      0.285482608109
O     -0.878826689618      2.910274602437      1.118824081760
C     -0.497084796932      1.779844682424      1.010389501973
H     -0.164232634344      1.202073681307      1.897746864862
C     -0.396700441006      1.013698898727     -0.273810479696
H     -0.988940754848      1.519595529139     -1.037378057775
H      0.650557476142      1.074707120141     -0.583369907649
C      0.247770671027     -1.447003363115     -0.548674701277
H     -0.117535371007     -2.306905484760     -1.093833499976
C     -0.806741181363     -0.461034754782     -0.127946630074
H     -1.714107241617     -0.640443724194     -0.704949119784
H     -1.055793247896     -0.663239046400      0.919816533587
