14
OptimizedStructure
C      1.413045256799     -1.303810165391     -1.162796451310
H      2.099783074428     -2.101876938673     -1.386296225828
H      1.625320240516     -0.355146909746     -1.626321330754
O     -1.060115852488      3.019763368157      0.672820014791
C     -1.007509837251      1.855501178485      0.949866148292
H     -1.744295709814      1.400406913486      1.643758976564
C      0.012178732774      0.882553343006      0.438953122828
H      0.581535043741      1.345523775908     -0.366585610615
H      0.696932297765      0.670364212190      1.266058852873
C      0.372948383953     -1.487049024836     -0.371159080426
H      0.198480616604     -2.463003051798      0.061890944536
C     -0.636651116508     -0.430751721858     -0.015504910522
H     -1.267884565443     -0.229889937739     -0.886204691435
H     -1.283766565076     -0.802585041191      0.781520241005
