14
OptimizedStructure
C     -0.170977017983     -0.908419367496     -1.732554020901
H      0.217113909379     -1.208888907275     -2.690382534960
H     -1.137617244968     -0.432123938275     -1.750203242149
O      1.547493286802      1.598002210876      0.279140619914
C      0.380861603048      1.736459374675      0.508250027731
H     -0.087477959953      2.743291834851      0.501280225783
C     -0.590115565605      0.640998233557      0.840053302031
H     -0.967098501029      0.835184875371      1.848887454825
H     -1.442469075098      0.726289264061      0.163407143002
C      0.505275834987     -1.116807625852     -0.618484897285
H      1.467801837363     -1.606469036343     -0.667974924026
C      0.047446429971     -0.746422672539      0.764739673924
H     -0.674758372985     -1.490476720640      1.114513346569
H      0.904520836073     -0.770617524971      1.439327825541
