14
OptimizedStructure
C      1.795925291869     -0.994669512222     -0.725769317416
H      2.400254881776     -1.020698782184     -1.615594916149
H      2.319993821508     -1.109693650087      0.209881674553
O     -0.052116880264      1.764544509850     -1.095918612476
C     -0.677704970571      1.742433964370     -0.077221650532
H     -1.126274701100      2.676099101645      0.329341588658
C     -0.984129264270      0.572471146277      0.810851406907
H     -0.649423951280      0.865205977000      1.810209198061
H     -2.075652380322      0.519020837716      0.865043990117
C      0.489018455262     -0.820279484704     -0.775064325575
H     -0.011356278596     -0.706134774898     -1.725369677396
C     -0.392489606914     -0.806337166298      0.437613593416
H     -1.217311772251     -1.502143173946      0.263866166119
H      0.181267355152     -1.179818992520      1.288130881712
