14
OptimizedStructure
C      0.523231510077     -1.051388732156      0.654071707624
H      1.566950389088     -1.315795799670      0.878888075996
H     -0.110266003047     -1.912705866855      0.900544188579
O      0.159292471850     -0.052728444151      1.607697559733
C     -0.125281247835      1.237821892940      1.341956122084
H     -0.294323596305      1.726341121077      2.296312274769
C     -0.233842284581      1.929608896833      0.219145724858
H     -0.488199704054      2.971894556331      0.274645462918
H     -0.098060299967      1.519219772496     -0.761924155135
C      0.411531944775     -0.763471089209     -0.811771901023
H      1.221051648187     -0.190177953528     -1.243465241667
C     -0.562635028252     -1.233789699416     -1.569614075838
H     -0.601196700442     -1.046063631577     -2.629190683628
H     -1.368253099494     -1.818765023115     -1.157295059270
