14
OptimizedStructure
C      0.110130858331      0.253558582588     -1.313353629542
H      0.830738506567      0.079411344274     -2.113870711095
H     -0.890469963206     -0.017289611562     -1.660085620062
O      0.110443382567      1.632659975518     -0.996340665853
C     -0.097437833760      1.762641869118      0.330625672189
H     -0.546568810901      2.688777117115      0.645221946747
C     -0.144749512902      0.475793918208      1.046810098924
H      0.397237364254      0.474254066036      1.990698057545
H     -1.183957728221      0.152112967771      1.262124226772
C      0.449326487080     -0.487804014422      0.011255490580
H      1.553153329826     -0.474130974856      0.067444477590
C     -0.133334653781     -1.823939521918      0.182208797443
H     -0.102968605608     -2.535501195835     -0.620510138740
H     -0.351542820245     -2.180544522034      1.167771997501
