14
OptimizedStructure
C     -0.465449234766      0.096365825186     -0.880870952731
H      0.433462375876      0.610891716656     -1.253701072648
H     -1.123602681249     -0.097228177657     -1.732989769111
O     -1.198020853461      0.960855869121     -0.036899050979
C     -0.529900689758      1.625737223809      0.934523825011
H     -1.226374608478      2.252121361027      1.477004544483
C      0.757793118214      1.592741964808      1.240246911144
H      1.476476061588      0.976215518960      0.730929894383
H      1.131718293392      2.204121973034      2.039529764202
C     -0.080661265305     -1.195462948526     -0.214917453726
H     -0.054427185729     -1.162021288506      0.865346269089
C      0.208207214180     -2.304362642906     -0.868124488537
H      0.180861502132     -2.352435992334     -1.944478081217
H      0.489917953364     -3.207540402673     -0.355600339363
