14
OptimizedStructure
C     -0.622218048554      0.021137925159     -1.122207327433
H     -0.340329864355      0.836510186207     -1.802131990273
H     -1.564973563142     -0.415743340374     -1.463914713885
O     -0.913317126365      0.538522991197      0.163884820637
C      0.051915708338      1.310483312945      0.727425362154
H      0.873734878115      1.593580900571      0.076499033377
C     -0.012613543418      1.717982344125      1.983866976015
H     -0.829335225179      1.431231037553      2.620332008624
H      0.747652561700      2.352956200335      2.395915966039
C      0.459717128304     -1.030330368163     -1.084414279527
H      1.406981938305     -0.765830758725     -1.534065508089
C      0.296196669939     -2.198354733302     -0.492583675978
H     -0.639847606292     -2.464795000841     -0.030148461251
H      1.086436092606     -2.927350696687     -0.438458210411
