14
OptimizedStructure
C      1.246800999188     -2.068502524611     -0.446258732382
H      1.976526072161     -2.569257051745     -1.059299529809
H      1.104979802818     -2.463820156357      0.546211434879
O     -1.329363483428      1.560393126142      2.115336738886
C     -1.068797896815      1.871367924217      0.987867044543
H     -1.592562715489      2.718620257971      0.500894387039
C     -0.061182056811      1.172322681998      0.117333450823
H      0.030948056966      1.673093946660     -0.846158064106
H      0.906256221565      1.194574830249      0.625111948900
C      0.555730817532     -1.033673107531     -0.884357493734
H      0.715613578382     -0.652114175928     -1.884896670867
C     -0.467723093108     -0.300657201938     -0.077459619094
H     -1.430981540423     -0.334128530153     -0.595050165356
H     -0.586244762539     -0.768220018974      0.900725270277
