14
OptimizedStructure
C      0.814052133192     -0.213518553618     -1.341544563741
H      0.812538872089     -0.244701343562     -2.436431218049
H      1.781455316244     -0.621359540791     -1.006838941671
O      0.831249906563      1.149289675735     -0.998424179381
C      0.106783602659      1.507015371168      0.063682675806
H      0.248621044802      2.552296348367      0.300932176382
C     -0.417935960295      0.615478193895      1.119824087986
H      0.289790473348      0.613932398800      1.965334155067
H     -1.343085569581      1.051197399674      1.506450813509
C     -0.313380658784     -0.990324881558     -0.779894194664
H     -0.384521781877     -1.999247696078     -1.163220642820
C     -0.653101778778     -0.821895762496      0.657822522586
H     -1.701856743813     -1.089594774062      0.813230821630
H     -0.070608855769     -1.508566835474      1.299076487360
