14
OptimizedStructure
C      1.799696372556     -0.663743271050     -0.420395782871
H      2.614413212826     -0.833980665726     -1.102735773324
H      2.062189863799     -0.183133848149      0.507868785603
O     -0.964277398119      1.535174970181     -1.318971921125
C     -0.825502906252      1.648888614354     -0.135543905025
H     -0.801227495894      2.650394970240      0.343515281644
C     -0.684251406948      0.524909051718      0.849160661611
H      0.211552250693      0.706813831696      1.445882942395
H     -1.536501398276      0.582851161589      1.533181019094
C      0.565488738753     -1.025824741035     -0.716238395938
H      0.369082527869     -1.510537922926     -1.662363657296
C     -0.635479432103     -0.843596099402      0.169521860918
H     -1.538841249269     -0.964721638478     -0.430059206959
H     -0.636341679635     -1.623494413013      0.937178091272
