14
OptimizedStructure
C      1.674708972648     -1.785496852483     -0.436723014996
H      2.668508799739     -1.921119468190     -0.827265606883
H      1.274183814716     -2.602809662431      0.140770584249
O     -1.290403398657      3.026986679501      0.294037588258
C     -1.443588131814      1.839322209059      0.265914938879
H     -2.382262551770      1.393901629841     -0.124451666715
C     -0.449235309886      0.822457460830      0.742144113121
H      0.533766279516      1.293072868647      0.807365373708
H     -0.746327425509      0.554144018820      1.759435241198
C      0.980514933731     -0.685658811230     -0.656818279006
H      1.403317198849      0.122450997295     -1.239585413018
C     -0.403130187866     -0.439562068283     -0.142083580584
H     -1.073401192825     -0.305168352025     -0.996741461465
H     -0.746651800873     -1.312520649351      0.414001183253
