14
OptimizedStructure
C      1.298492674100     -1.369517489089     -1.215785076451
H      1.907956927865     -2.213762486315     -1.488667815732
H      1.616004177487     -0.416073652620     -1.604856204824
O     -2.037189731735      1.898198806264      0.931322902351
C     -0.841623651189      1.905829872337      1.005173399286
H     -0.302081422818      2.769044301956      1.447845415611
C      0.075811481911      0.815895671601      0.538360202226
H      0.752529069204      1.250599625130     -0.201271703911
H      0.692959576346      0.507637025620      1.387223371020
C      0.225569739007     -1.503469130446     -0.458147576438
H     -0.054573277466     -2.486871070235     -0.104904654671
C     -0.680245233654     -0.380833733507     -0.040552952799
H     -1.262073346439     -0.040199292145     -0.901752421200
H     -1.391536982618     -0.736478448550      0.706013115533
