14
OptimizedStructure
C      1.058470051973     -0.958981671806     -1.294311128692
H      1.391424634611     -1.468213342165     -2.182659377110
H      1.644022476103     -0.109937027163     -0.983790905666
O      1.346736389205      1.418257797496      1.204792324774
C      0.322264701496      1.711468277767      0.658187228393
H      0.137071543823      2.750911548147      0.316015193706
C     -0.836200402467      0.794386627066      0.392843251371
H     -1.633018999486      1.123196809361      1.068038061490
H     -1.191720009366      0.964230709361     -0.625879457785
C      0.000588022313     -1.361611612947     -0.615355671820
H     -0.557959835500     -2.225470041157     -0.951013171341
C     -0.515252224962     -0.687492533239      0.625576509647
H     -1.408719154559     -1.204818684760      0.975603427514
H      0.242292806816     -0.745926855963      1.411953715518
