14
OptimizedStructure
C      0.890414516630     -2.141810150598     -0.132089798735
H      1.718636365561     -2.758138474517     -0.436879574084
H      0.366927528120     -2.452936821024      0.757218967843
O      0.177409783277      2.389269351883      1.969521320659
C     -0.505728912252      1.731339680150      1.237986872865
H     -1.530719217619      1.427050525962      1.534580363449
C     -0.109408029227      1.257266117429     -0.128720688846
H     -0.541328898343      1.969423312236     -0.837281504117
H      0.976524210199      1.322268386523     -0.219714284883
C      0.530939333214     -1.067939322982     -0.808505447575
H      1.073746023475     -0.773973780657     -1.697655403741
C     -0.606751590416     -0.171256717165     -0.430958892337
H     -1.327009868313     -0.148465687230     -1.252116078160
H     -1.113651244306     -0.582096420011      0.444614147661
