14
OptimizedStructure
C      0.765257990826     -1.248006389907      0.619468976373
H      1.697696363535     -1.789547797587      0.732711042441
H      0.014057009847     -1.579365330238      1.335131813873
O      1.140597708683      0.200511232730      1.153150556153
C      0.145349350244      1.044609679317      1.039027845602
H     -0.555255549608      1.107614523010      1.876547968784
C     -0.266935321325      1.442861563667     -0.222619951865
H     -1.122987527320      2.099355615323     -0.293501939496
H      0.489003390503      1.618647827380     -0.972990248688
C      0.298660816578     -1.060635299209     -0.722734539921
H      1.038539153604     -1.081205041642     -1.510640285408
C     -0.835215586610     -0.280996147129     -0.898824621734
H     -1.139776344663     -0.040025582878     -1.907976662610
H     -1.668991454293     -0.433818852837     -0.226749953503
