14
OptimizedStructure
C     -0.085408146343      0.002336334118     -0.852773647916
H     -0.304366993520      0.308638780820     -1.886405952273
H     -1.006951379200      0.058714726936     -0.271479426592
O      0.908958223551      0.888120763502     -0.355890591798
C      0.647602077928      1.703232592141      0.687919826112
H      1.554817220217      2.242359647591      0.932585945447
C     -0.468161714825      1.911878875709      1.369067358861
H     -1.401869712125      1.415290336241      1.175006681411
H     -0.468807907793      2.617299128016      2.177655280274
C      0.446130494784     -1.400822920822     -0.850277449689
H      1.454009507344     -1.497911774182     -1.228298060384
C     -0.229294176477     -2.448358417497     -0.419510218842
H     -1.231873066297     -2.359415169217     -0.033409177572
H      0.185215572755     -3.441362903354     -0.444190567039
