14
OptimizedStructure
C      0.369773127365     -0.236612667636     -1.468566721678
H      0.953313603428     -0.694403723102     -2.268681455140
H     -0.447895546420      0.348035851790     -1.929866213049
O      1.243988421966      0.749875629387     -0.866732348069
C      0.800284634295      1.240090905499      0.288868760288
H      1.420673533382      2.012770377054      0.706541237544
C     -0.465386139262      0.778811587623      0.894634083323
H     -0.552643866795      1.151368703831      1.914975201368
H     -1.316476181224      1.170835796905      0.318644228783
C     -0.146361230343     -1.233010404175     -0.510965489450
H      0.088563000806     -2.270647394918     -0.655694512032
C     -0.536325198272     -0.758049751985      0.845755080205
H     -1.547862378674     -1.095093384794      1.115607855739
H      0.136354219749     -1.163971525480      1.615480292169
