14
OptimizedStructure
C      0.949578646366     -1.255565008921     -1.708648904777
H      1.842052496435     -1.701745423338     -2.112532820680
H      0.235317056715     -0.885484562911     -2.425991036243
O     -0.362278918541      3.013170350931      0.639296166752
C     -0.832359915471      1.911719417738      0.662126292467
H     -1.890619539670      1.736985386454      0.378015348734
C     -0.106762978138      0.665519860316      1.074680408987
H      0.967132294258      0.858347666382      1.038343512369
H     -0.373087698458      0.487796094693      2.120274623820
C      0.736705620382     -1.168513211635     -0.409777719588
H      1.470105228509     -1.545256908215      0.291529637214
C     -0.480598747747     -0.555387297797      0.209228226477
H     -1.172955661825     -0.254549753971     -0.579760465795
H     -0.982227882817     -1.307036609726      0.823216730264
