14
OptimizedStructure
C      0.606629323032     -1.957042106638     -1.216188859337
H      1.124614405044     -2.132767363926     -2.142715698902
H      0.136210565573     -2.814326696557     -0.762166529215
O     -0.282197676311      2.953799211943     -0.386238206978
C     -0.711434957528      1.902917857773     -0.003232364866
H     -1.673061733304      1.504263456971     -0.386352183454
C     -0.058867416367      1.011642506325      1.012908761514
H      0.982239906552      1.311515804426      1.145421212922
H     -0.582407326134      1.178405521811      1.959635025885
C      0.548770871634     -0.760037447470     -0.663880787817
H      1.029327875409      0.083243700842     -1.141526142404
C     -0.163430380244     -0.462795971528      0.626549062150
H     -1.216840288594     -0.742722316301      0.531747724759
H      0.260446831238     -1.076096157671      1.426038985744
