14
OptimizedStructure
C      1.311459203810     -1.994597265227     -0.635776357229
H      1.862924658586     -2.495775282808     -1.412680161577
H      1.535790418168     -2.292629882264      0.375527627473
O     -2.221550745651      1.880319233285      0.991168626809
C     -1.024065298692      1.881162925208      1.040087584022
H     -0.492101619305      2.415571710077      1.852385138864
C     -0.129002317685      1.167093569518      0.065447594773
H     -0.370183063881      1.514586237582     -0.942187276239
H      0.919698421573      1.376646501551      0.273908839368
C      0.403902260257     -1.074844753369     -0.902739239966
H      0.197167216232     -0.791450904071     -1.926753310078
C     -0.392951856036     -0.349106036468      0.132475499849
H     -1.459615839516     -0.516301739887     -0.038607689136
H     -0.141471437861     -0.720674313128      1.127743123068
