14
OptimizedStructure
C      1.371083213797      0.008719727887     -0.685175290454
H      2.036205045689     -0.096926881206     -1.543505115826
H      1.993835566612      0.153449209276      0.217284310447
O      0.688051016953      1.272114049133     -0.877143435433
C     -0.348521821573      1.461609504104     -0.063320981141
H     -0.820031928947      2.422450609070     -0.167337205918
C     -0.759934360585      0.441557668345      0.922526186752
H     -0.029417056016      0.404070267163      1.743951571887
H     -1.729172392732      0.698900529262      1.348976913716
C      0.458711326721     -1.141186260420     -0.538523574897
H      0.504440739006     -1.941720430699     -1.252581396652
C     -0.785605179219     -0.945862590789      0.256353014576
H     -1.677926372382     -1.010291694301     -0.383460674058
H     -0.901717797324     -1.726883706825      1.021955677000
