14
OptimizedStructure
C      0.896798552356     -0.986202289262     -1.557554765364
H      0.874903111981     -0.987174243734     -2.633697630577
H      1.862508601604     -1.126266066389     -1.100186569058
O      0.547144534126      2.538138984804      0.029358571780
C     -0.281945750312      1.687353813488      0.181541745874
H     -1.171786610235      1.637814950838     -0.475132882337
C     -0.252330185184      0.633800633480      1.252952049851
H      0.616625547554      0.811021022810      1.887165476553
H     -1.153897560314      0.763543895113      1.855757198570
C     -0.194326455477     -0.818174581244     -0.835062111270
H     -1.152074041205     -0.685134998092     -1.320784051525
C     -0.209228970668     -0.802130109870      0.665898586224
H     -1.072930917857     -1.367998535720      1.019247878411
H      0.690540143631     -1.298592476223      1.030496502866
