14
OptimizedStructure
C      0.960678940262     -2.100687809183     -0.057189809312
H      1.783531397856     -2.709225831707     -0.392215981514
H      0.547507251897     -2.344053178741      0.907754498097
O     -0.889518670687      1.189002798899      2.095803413952
C     -0.414704684761      1.775213000402      1.166125712530
H     -0.068514201708      2.824121757457      1.269879239897
C     -0.218211332406      1.232762364647     -0.220253157168
H     -0.761419948684      1.892599942074     -0.901605967069
H      0.843340546021      1.346340821519     -0.458965464437
C      0.477418959793     -1.112043686639     -0.784492101190
H      0.908965564732     -0.882366027164     -1.751389984773
C     -0.658601425099     -0.232544231869     -0.365260726791
H     -1.459930760445     -0.306840432419     -1.103739062168
H     -1.050541636772     -0.572279487275      0.595549389946
