14
OptimizedStructure
C      0.087360884597     -0.075184656691     -0.849270388026
H      0.037073118032      0.113311930143     -1.931904035598
H     -0.929917227723     -0.127311519825     -0.458439408479
O      0.822018481220      0.995947287835     -0.272013166055
C      0.241059576119      1.832699200990      0.613754248621
H      0.992345138006      2.529779037491      0.964759911758
C     -1.006597880636      1.905991144674      1.050103636977
H     -1.799881948076      1.250187217437      0.739156656708
H     -1.271920549074      2.660009583121      1.765988423748
C      0.806875154179     -1.368256121874     -0.600955689757
H      1.873107279533     -1.326918395196     -0.772923801072
C      0.219455698362     -2.477194862783     -0.195658361190
H     -0.842065355317     -2.525077685586     -0.013956267217
H      0.771087630780     -3.387982159737     -0.038641760417
