14
OptimizedStructure
C     -0.029420343656     -0.699136781905     -1.782800125643
H      0.136024470206     -1.253659304297     -2.690689178632
H     -0.082189093945      0.369571865431     -1.891303354746
O      1.698851572678      1.317872128004     -0.239392991349
C      0.917401757257      1.478123748387      0.653814711747
H      1.170230272369      2.143613000408      1.505787989006
C     -0.440640045737      0.838315197407      0.765944726594
H     -0.913152330119      1.152260521896      1.697059240501
H     -1.058130868960      1.180169729299     -0.067611913148
C     -0.122260424147     -1.312212653745     -0.619279500483
H     -0.038440650699     -2.391940126807     -0.577692418110
C     -0.361778455881     -0.695401609007      0.725764514757
H     -1.304112446193     -1.096183344096      1.114610704034
H      0.427616586827     -1.031392370973      1.405787595473
