14
OptimizedStructure
C      1.120142204138     -1.630600668440     -1.479525404106
H      1.706838020922     -2.531073730508     -1.541243136404
H      1.158664832210     -0.977517684745     -2.336197962984
O     -2.078471355767      1.815006781291      1.356086034720
C     -0.909973658249      1.902921213753      1.104590187214
H     -0.434049028198      2.894757356926      0.969821745248
C      0.014555107505      0.731418873987      0.920785377703
H      1.041318806193      1.064789377502      0.773264504057
H     -0.034619502849      0.109596467955      1.818096814884
C      0.385754375623     -1.344225562850     -0.421443854558
H      0.364415579798     -2.015469664389      0.427460081460
C     -0.449432771714     -0.112906569841     -0.281234282871
H     -0.391470918642      0.485204695974     -1.192697635699
H     -1.493671690969     -0.391900886614     -0.117762468665
