14
OptimizedStructure
C     -0.007995175821     -1.401093782039     -1.896462052331
H      0.413964338874     -1.368179331306     -2.886173922256
H     -0.819291202620     -2.096480319848     -1.748194786723
O      1.323411189549      2.006980947568      0.330371284258
C      0.463166947819      1.728542165861      1.116477332259
H      0.435694620251      2.217592220934      2.112064327597
C     -0.642585250649      0.732533368000      0.893636118332
H     -1.239135714769      0.636186207045      1.801074881962
H     -1.283266716986      1.112651074256      0.093362083396
C      0.447317408475     -0.642681725973     -0.917746354732
H      1.258656546125      0.050670347101     -1.086815947937
C     -0.106406751967     -0.650783474768      0.472423579441
H     -0.920872682539     -1.374941411495      0.541753692995
H      0.677342444259     -0.950996285335      1.174229763741
