14
OptimizedStructure
C      1.444865861654     -1.316809141374     -0.918839919517
H      1.964567392820     -1.801543003740     -1.726953316880
H      2.061602949838     -0.975027557819     -0.103673287705
O     -0.981605412214      2.827414047534      1.359972285808
C     -0.777119572480      1.953719955812      0.566126538047
H     -1.126267107833      2.041444568778     -0.483295554677
C     -0.040587410096      0.677916953528      0.845333542284
H      0.970597373214      0.826726684834      0.457725611417
H      0.035393244322      0.539889933070      1.924389759457
C      0.133988962756     -1.164088348133     -0.933752518582
H     -0.434592617134     -1.549238410102     -1.769950452535
C     -0.691256266047     -0.531096117206      0.151860453690
H     -1.653518869200     -0.230986594953     -0.269810491890
H     -0.906068529599     -1.298322970227      0.900867351082
