14
OptimizedStructure
C      1.559560400935     -1.451876093677     -0.665308122927
H      2.119767796835     -2.139929304511     -1.274246439121
H      2.140369295023     -0.829237026130     -0.004974893004
O     -1.391490265393      2.946489642346      0.636120067905
C     -0.971200106472      1.866731601954      0.940681399643
H     -1.191692758749      1.428607687221      1.936242112595
C     -0.120096921153      0.984996495277      0.078440228147
H     -0.095782655792      1.375559632700     -0.940039972995
H      0.893381721952      1.026298574930      0.485985529826
C      0.242905467639     -1.385390781679     -0.727824867844
H     -0.290828230079     -2.040267652042     -1.403188156756
C     -0.617054080594     -0.465365339105      0.094029088507
H     -1.640254998959     -0.493064698375     -0.284269262314
H     -0.637584665192     -0.823552738910      1.128353288336
