14
OptimizedStructure
C      1.386468473260     -0.486924290485     -1.154296040373
H      2.332917691589     -0.861770173375     -1.503600918128
H      1.171764586193      0.544131091503     -1.383998383785
O      0.532905239404      2.471605592733      0.767386013969
C     -0.278063762264      1.682182067476      0.373653587751
H     -0.876216549628      1.884457692918     -0.539613182990
C     -0.633739474298      0.386927075949      1.039901266418
H      0.109107760852      0.151226017187      1.803422549080
H     -1.595543107523      0.556036663169      1.535003572651
C      0.543995385523     -1.243568417629     -0.477219211266
H      0.799705368547     -2.271758200522     -0.259995217933
C     -0.785090189070     -0.771796168032      0.045734220516
H     -1.412468426314     -0.442673222236     -0.787827767330
H     -1.295742996273     -1.598075728657      0.541449511421
