14
OptimizedStructure
C      1.276904315761     -1.420829107031     -1.098433869594
H      1.671866810649     -1.853767748927     -2.001288224860
H      1.990721577657     -1.238226361505     -0.310967780927
O     -1.904471053669      1.999584091412      0.338794130139
C     -0.759362948364      1.955456430687      0.686628866113
H     -0.224104944308      2.874250366256      1.002795102382
C      0.101247987414      0.727062563226      0.757513061030
H      0.993353076920      0.924866759715      0.157724125939
H      0.436441747669      0.634966565003      1.793676025117
C     -0.005798125856     -1.138028061291     -0.963323523494
H     -0.688722246003     -1.349846455526     -1.774380442988
C     -0.617464020815     -0.540429504743      0.272628770238
H     -1.659255212824     -0.282060905187      0.073898302236
H     -0.611356964229     -1.292998632089      1.064735458669
