14
OptimizedStructure
C     -0.276689576023     -0.033034896537     -0.767262105577
H      0.015388246000      0.595265150937     -1.627191080181
H     -1.327556324756      0.205204258322     -0.532240462385
O      0.550194441693      0.251566641976      0.343477981387
C      0.471587340842      1.548679241371      0.787895541911
H      1.254866490199      2.201421180232      0.408183976629
C     -0.447449559948      1.977460677796      1.632516872603
H     -1.217161796488      1.321929897658      2.003271036277
H     -0.449245622757      2.991481134453      1.987629171861
C     -0.171625336284     -1.475829331594     -1.154275029225
H     -0.779963002713     -1.740586806532     -2.009107545132
C      0.579110704179     -2.365126698395     -0.534923531435
H      1.178422853130     -2.085521716332      0.313556439622
H      0.620121142925     -3.392908733357     -0.851531266354
