14
OptimizedStructure
C     -0.201105694118     -0.879289412520     -1.745954650375
H      0.248817330757     -1.338816394058     -2.608805688494
H     -0.941240863356     -0.123296817193     -1.947346710796
O      1.286537324653      2.366788157600     -0.098386179446
C      0.964104451167      1.436196878380      0.583090407610
H      1.711452528059      0.890120498408      1.194393271828
C     -0.429644511195      0.899319076628      0.723823885965
H     -0.820821144356      1.268060972951      1.677150666920
H     -1.053941608304      1.299366443947     -0.074978497511
C      0.141142832291     -1.225791738546     -0.519453617114
H      0.885383114290     -1.996863948811     -0.371258628539
C     -0.440783258414     -0.633127334124      0.735595612092
H     -1.473249429709     -0.974384956034      0.852027136164
H      0.123348928235     -0.988281426629      1.600102991695
