14
OptimizedStructure
C     -0.473853062185      0.194192708739     -1.035003657351
H      0.594363990537      0.234326280225     -1.289981003893
H     -1.063738639613      0.437762493264     -1.925124945148
O     -0.799021802740      1.215366582769     -0.102832775890
C     -0.050968283250      1.195138241738      1.051594438662
H     -0.502869845305      0.650535180310      1.877098638072
C      1.107275500822      1.815434977163      1.173589468828
H      1.545326931907      2.352046827497      0.349117462651
H      1.644272879179      1.815767037127      2.104181205711
C     -0.840282370136     -1.174121804779     -0.539001376516
H     -1.858823472585     -1.268783030541     -0.187122168735
C     -0.006641972356     -2.195538455651     -0.498871443853
H      1.012559824820     -2.107815356178     -0.839252862051
H     -0.307599679095     -3.164311681684     -0.138390980487
