14
OptimizedStructure
C      1.570826092273     -0.659170687711     -0.901801306045
H      2.500070395573     -1.153171937180     -1.129411101282
H      1.544578958223      0.405290373330     -1.064300083869
O     -0.530299002502      2.089210554655     -0.794145733323
C     -0.418669822293      1.778599212115      0.357092007507
H     -0.140017291197      2.530097404526      1.124830416673
C     -0.660716394465      0.414835483277      0.935926439088
H      0.142685287115      0.184766851140      1.639242188884
H     -1.582007095308      0.502355867855      1.521151356162
C      0.518046134427     -1.323067234194     -0.462367705907
H      0.577459732698     -2.394192472449     -0.320753203701
C     -0.801196829334     -0.687613309318     -0.121433525011
H     -1.229574225380     -0.235919688907     -1.020401536482
H     -1.491185939830     -1.452020417139      0.236371787304
