14
OptimizedStructure
C      0.781822810803     -1.506764579715     -1.375623694451
H      0.803111399963     -1.635558104712     -2.444087217621
H      1.579215762039     -1.976961556571     -0.823013015999
O     -0.918308509177      2.759559616653     -0.129533984293
C     -0.187125823552      1.819819625610      0.005067989910
H      0.617986710375      1.610261963725     -0.726288972422
C     -0.223505542902      0.852381246991      1.152464826464
H      0.693250861454      1.033230348733      1.720261086446
H     -1.071862454763      1.095970554169      1.793024203201
C     -0.167718110498     -0.817444086871     -0.772256146780
H     -0.960926246466     -0.356698439994     -1.347738221252
C     -0.265127113745     -0.630462088252      0.710737440576
H     -1.215816523139     -1.058175804608      1.038788118332
H      0.535002779609     -1.189158695159      1.198197587888
