14
OptimizedStructure
C      1.614364100459     -0.884708180341     -0.696456972649
H      2.292839392671     -1.126766990447     -1.496111482532
H      2.069411288788     -0.518905913250      0.209150022580
O     -1.149261294941      2.795202467660      0.304051959591
C     -0.609643147543      1.756953064353      0.044698897262
H     -0.127012981114      1.589936525004     -0.938701655047
C     -0.497116755194      0.582302568540      0.970343202541
H      0.508492140727      0.608118525459      1.397517045451
H     -1.211970943471      0.694713240513      1.787482901972
C      0.308954035459     -1.033252255994     -0.827894990748
H     -0.088740929043     -1.416541441240     -1.758392876888
C     -0.713192448282     -0.746674535346      0.237068513346
H     -1.709989463128     -0.746088064505     -0.207747238850
H     -0.687132995387     -1.554289010408      0.974992673970
