14
OptimizedStructure
C      1.720667596651     -0.578196498590     -0.610758358239
H      2.555781095960     -0.962427298589     -1.171188674432
H      1.896514672592      0.341830063959     -0.082245628583
O      0.028095796513      1.969803274455     -0.894015822293
C     -0.712578875990      1.716398654016      0.012268591335
H     -1.555792925550      2.397385807309      0.252899847345
C     -0.633701623928      0.508610490564      0.907384617475
H      0.308694253115      0.542750038462      1.458474935079
H     -1.454295995624      0.535296158601      1.624822065603
C      0.555988121456     -1.196051409251     -0.616999805791
H      0.440248307096     -2.109194823402     -1.189136942371
C     -0.693710382502     -0.804576437572      0.112362819854
H     -1.513149720798     -0.747988953234     -0.611365682101
H     -0.942760318991     -1.613639066729      0.807498037119
