14
OptimizedStructure
C      0.405665645686     -1.621033221931     -1.698477995341
H      0.850501467455     -1.585050836700     -2.677490945430
H      0.189336882722     -2.602464822941     -1.308143736736
O      0.849558358010      2.755003228375      0.801241894585
C      0.643635098467      1.604958654164      1.066348481804
H      1.445948434714      0.961488587848      1.481884718858
C     -0.666900948642      0.892253399802      0.901106556671
H     -1.126277995624      0.844980079252      1.893544319403
H     -1.321386193840      1.478659012265      0.253676508820
C      0.138501623139     -0.526561045922     -1.011480294361
H      0.366684068876      0.445798353174     -1.426995939821
C     -0.479552559913     -0.523876991982      0.359210896171
H     -1.449241517478     -1.027206579015      0.322392406335
H      0.153527636427     -1.096947816390      1.043183129040
