14
OptimizedStructure
C      0.609558252816     -1.977971528252     -1.027523371009
H      0.873367797261     -2.277180609422     -2.027350007821
H      0.923957330343     -2.636943626348     -0.234283985516
O     -1.422281000172      2.422192650279      0.021105110642
C     -0.294481715927      2.016420891467      0.027411123233
H      0.458743632180      2.427829312103     -0.674038804424
C      0.217266341952      0.930660296434      0.934547370819
H      1.299600328582      0.836086726902      0.851784269493
H     -0.047844481057      1.189893240137      1.961907925351
C     -0.067085976751     -0.872499321656     -0.781612306700
H     -0.373018898714     -0.223624416637     -1.592469958558
C     -0.458988007227     -0.410135480501      0.585896874961
H     -1.541654559757     -0.266178892106      0.626182747772
H     -0.177139043527     -1.158549242400      1.328443011756
