14
OptimizedStructure
C      0.285203261315     -0.135230522436     -0.787556645131
H      0.992138577410      0.193262594315     -1.567600660089
H     -0.732863528848      0.078970835447     -1.136908698246
O      0.574671728272      0.574920785776      0.401151943214
C     -0.238162457769      1.604123197619      0.736141442937
H     -1.109128847067      1.749526065818      0.102104617890
C     -0.000197843405      2.384533181608      1.777789973097
H      0.863125264477      2.236200436065      2.399625533959
H     -0.670256320516      3.183758867705      2.028424539840
C      0.461947531607     -1.605728510122     -0.552160395080
H      1.328798710722     -1.857895842600      0.041367195197
C     -0.352841958727     -2.535006654818     -1.011939648541
H     -1.223243575185     -2.289795908304     -1.598881503059
H     -0.179190542286     -3.581638526073     -0.831557695988
