14
OptimizedStructure
C     -0.331539510888     -0.219171657248     -0.631813895230
H      0.075106888423      0.458403162769     -1.398730001603
H     -1.385217029439     -0.415757732298     -0.872729775330
O     -0.253907016906      0.383302032204      0.643665286211
C      0.003444616804      1.711313490000      0.707613894235
H      0.191428278597      2.206416441818     -0.242212863002
C      0.034946680357      2.372375345910      1.853180808316
H     -0.153153663345      1.876576127995      2.787422090736
H      0.251764634433      3.422699691351      1.874511549318
C      0.452373228237     -1.497973778384     -0.637839649457
H      1.425969788176     -1.427973727987     -0.172866762157
C      0.019753628346     -2.632368458588     -1.152680524593
H     -0.953162037368     -2.713837712814     -1.609113299506
H      0.622191514573     -3.524003224729     -1.148406857939
