14
OptimizedStructure
C      0.531331327912     -0.027592982832     -1.497934795062
H      1.380757606230     -0.006607069255     -2.171410430308
H     -0.406661988768      0.150266683065     -2.022163707384
O      0.721907088262      1.308979872641     -0.660562841128
C     -0.186637689174      1.442991430004      0.273587770912
H     -1.114391967215      1.953101665102     -0.000863151880
C     -0.182331748942      0.576796917376      1.355265104428
H      0.770873554102      0.284679808021      1.769350610335
H     -0.972409817964      0.673876388134      2.086829632811
C      0.509131344561     -1.090527077606     -0.536682096579
H      1.458668678845     -1.527647568324     -0.261104168180
C     -0.511667423553     -1.077272194915      0.402632607276
H     -1.514227598798     -0.853356471154      0.063581993416
H     -0.484341365499     -1.807689400258      1.199473471345
