14
OptimizedStructure
C      0.243281585100     -0.177550835825     -1.509133283506
H      0.846135974790     -0.298191143644     -2.405356705694
H     -0.797952954524      0.030653140614     -1.765405025686
O      0.824288052024      1.074502101485     -0.887901074304
C      0.530583852824      1.360982619811      0.360389912936
H      1.393666756132      1.638211710746      0.963671429478
C     -0.602896391735      0.798880813969      0.954508672088
H     -0.718611918468      0.969082695235      2.016462431615
H     -1.526835974291      0.934995794086      0.410068617184
C      0.411743269021     -1.190694129202     -0.481509802442
H      1.446759852062     -1.442934189284     -0.275847938870
C     -0.439721112194     -1.016859073995      0.628377294110
H     -1.493172964835     -1.187900719198      0.443010469399
H     -0.117268025905     -1.493178784796      1.548665003691
