14
OptimizedStructure
C      1.527893561812     -0.542887026984     -0.823034194972
H      2.326591864460     -0.926421262081     -1.434723917293
H      1.706066441861      0.416514882463     -0.368829466842
O      0.259834897807      2.665552188572      0.446012104999
C     -0.373203110822      1.697648274190      0.129547352138
H     -0.902509751539      1.655841971594     -0.844026601553
C     -0.573110111603      0.474960959158      0.976141500239
H      0.261341855787      0.369535656857      1.671589716022
H     -1.473909212415      0.662384659610      1.570158873468
C      0.407662263963     -1.218788708181     -0.655477459052
H      0.282947924964     -2.178903364413     -1.141416136589
C     -0.778834619587     -0.797216697850      0.158678063818
H     -1.629171783263     -0.661343614855     -0.518569124943
H     -1.041600221426     -1.616877918081      0.833949290560
