14
OptimizedStructure
C     -0.616550480638      0.028245539051     -1.003162372017
H      0.366354755524     -0.041573922190     -1.487642279938
H     -1.392129988620     -0.096052931347     -1.768584362099
O     -0.829617677636      1.333908431284     -0.502298269564
C      0.098730566394      1.850583763161      0.337458329827
H     -0.185552055869      2.861264446874      0.600853267842
C      1.203936755650      1.291530481236      0.802603414708
H      1.502135948630      0.286376007172      0.567432631819
H      1.847683337895      1.845626684218      1.459167674393
C     -0.775022758850     -1.042225302841      0.037928934862
H     -1.521551873752     -0.827642514331      0.790414461118
C     -0.093748442461     -2.171605001493      0.053247949801
H      0.653995060992     -2.393531397647     -0.691190839922
H     -0.258663147258     -2.924904283147      0.803771459170
