14
OptimizedStructure
C     -0.577231496564      0.070879203454     -0.771053963833
H     -0.943328663589     -0.051312882138     -1.794127511902
H     -1.436231488846      0.290234933144     -0.118971919415
O      0.289482277819      1.188838560953     -0.815275556018
C      0.606066781574      1.809772153663      0.344068203440
H      1.270077633883      2.637421821862      0.129332999645
C      0.213650771488      1.540964339471      1.579666373205
H     -0.438973418304      0.726103368258      1.836840257734
H      0.550740819024      2.157397795702      2.391328418426
C      0.109890502641     -1.181905959910     -0.309465148371
H      0.805123850162     -1.047688590609      0.507645553661
C     -0.089599566764     -2.371843805791     -0.842207530153
H     -0.773101736764     -2.519075811596     -1.662384962127
H      0.413433734241     -3.249785126463     -0.475395214293
