14
OptimizedStructure
C      1.170402368728     -1.567657410619     -1.529458437119
H      1.825805447508     -2.418294866247     -1.607487473727
H      1.114101525175     -0.928629125270     -2.395552740684
O     -1.991722523896      2.076811328919      0.532861556666
C     -0.983912592997      1.860468021431      1.142399066765
H     -0.665931100665      2.521757308212      1.975331869125
C     -0.037131241794      0.722704256766      0.901005375495
H      0.959205987661      1.141076918893      0.731932977266
H      0.018312671788      0.137690932889      1.824224915396
C      0.466138597768     -1.322220877394     -0.441164152770
H      0.539685300495     -1.980571091012      0.415659750137
C     -0.459119274484     -0.160057781401     -0.275266588862
H     -0.482118262992      0.439080956503     -1.186498126901
H     -1.473716902296     -0.522158571669     -0.087987990788
