14
OptimizedStructure
C      0.314145365266     -0.034702400398     -1.174395021520
H      1.034001176356      0.004463450431     -1.999509186218
H     -0.698281940884      0.089091385887     -1.584132575389
O      0.654389999807      1.062521067741     -0.349645227193
C     -0.175554168787      1.287817538320      0.703479596106
H     -1.049362382623      0.646198233573      0.761833414231
C      0.060405162039      2.232740790822      1.597998537711
H      0.931586745740      2.858118056907      1.530690804659
H     -0.617489552451      2.399863411745      2.412506530406
C      0.431805965319     -1.350187025770     -0.460449165793
H      1.335966043954     -1.464572763454      0.122036541151
C     -0.480131607737     -2.302236387284     -0.503209008727
H     -1.387636783945     -2.193778102803     -1.075398366320
H     -0.353844022054     -3.235337255717      0.018193126896
