14
OptimizedStructure
C      1.401638891834     -1.953308613299     -0.524153291615
H      1.967671523095     -2.479764900279     -1.273232025834
H      1.678005864253     -2.141267538357      0.500696121446
O     -1.743304885431      2.851328837816      0.743400365974
C     -1.022849044156      1.921088444454      0.968053585467
H     -0.861722571143      1.560253376483      2.004583509644
C     -0.259927705373      1.140749958124     -0.059874401469
H     -0.594868339883      1.425458183689     -1.058658627272
H      0.794473969085      1.416011971017      0.041796052550
C      0.418948365774     -1.131370997949     -0.838664736455
H      0.160264079114     -0.958860207691     -1.875188701889
C     -0.400135470133     -0.372203765901      0.157280266787
H     -1.452223509916     -0.648268883049      0.043254538720
H     -0.085971167119     -0.629845865056      1.170707343947
