14
OptimizedStructure
C     -0.077850501239      0.027656560682     -1.024990161771
H      0.713786775301      0.593823492553     -1.544143975770
H     -1.046323297784      0.382328340839     -1.416172607789
O     -0.003317139472      0.248303864639      0.364797680015
C     -0.128831497516      1.537364735602      0.768751214908
H     -0.274287728874      2.271483907149     -0.018692799508
C     -0.078167851769      1.887104226306      2.043581579672
H      0.066010748241      1.154671881497      2.816240205050
H     -0.180282421418      2.914075645775      2.336243752779
C      0.073926277869     -1.428651463258     -1.344267646312
H      0.023309268902     -1.647758168638     -2.402565556732
C      0.253270761642     -2.379087044003     -0.448335356906
H      0.301979639263     -2.149278654696      0.601404961235
H      0.356776966853     -3.412037324449     -0.731851288871
