14
OptimizedStructure
C      1.287678288513     -1.477553792874     -1.487769583943
H      1.907366293087     -2.353899811776     -1.569455558055
H      1.397126913233     -0.742756118016     -2.268869681598
O     -1.578113569802      2.159174061372      2.137604190784
C     -0.980578280877      1.841693635677      1.149154510431
H     -1.001393282430      2.476883020691      0.239945733914
C     -0.148849878571      0.604226809451      0.992578026175
H      0.899974103261      0.917014910333      0.993556460053
H     -0.311393126939     -0.056589189270      1.845640712265
C      0.435092068447     -1.313357618495     -0.494635042297
H      0.343409852985     -2.065483479317      0.277997369133
C     -0.449261387374     -0.117810341964     -0.328126034996
H     -0.306953022060      0.569345814101     -1.164593602463
H     -1.494104971472     -0.440887899912     -0.323027499403
