14
OptimizedStructure
C      0.554750965941      0.157646500811     -1.158178910269
H      1.431863748003      0.725977605837     -0.814853871547
H      0.608300977827      0.084950323909     -2.251321508889
O     -0.625768291173      0.884493882052     -0.899682164878
C     -0.799654020502      1.395470260481      0.342350626778
H     -1.716287301491      1.970933847038      0.363449818496
C     -0.026107605340      1.277499175656      1.409384845066
H      0.878941035721      0.697745115172      1.423105656419
H     -0.300475627283      1.763981301505      2.326047020496
C      0.592417492696     -1.227252379192     -0.575014930215
H      1.549906655601     -1.718855828758     -0.685975916275
C     -0.424658930892     -1.832394252354      0.006444849886
H     -1.381175448102     -1.349386529729      0.115016171089
H     -0.342053651006     -2.830809022427      0.399228313845
