14
OptimizedStructure
C      1.151562901081     -2.117394313466     -0.561834759433
H      1.859562662811     -2.604478952186     -1.210042158240
H      0.977841679536     -2.586671956734      0.392709381444
O     -0.802542369290      2.592892066963      1.974516603546
C     -1.016649274086      1.912905954959      1.012066796801
H     -2.042382101541      1.811355107137      0.600847178490
C      0.010846094750      1.136194785452      0.245286775032
H      0.176578276412      1.665687325976     -0.698331165752
H      0.950774101271      1.120601533309      0.799285871487
C      0.524608215741     -1.011832091486     -0.914973656084
H      0.717726698181     -0.557167347172     -1.878329668097
C     -0.466696118162     -0.290045392559     -0.057735828917
H     -1.426637251828     -0.238938808709     -0.580674951334
H     -0.614593514874     -0.833107911484      0.877209581057
