14
OptimizedStructure
C      0.133152400179      0.081266829818     -1.167450919675
H      0.477544288413     -0.043826300362     -2.201177263250
H     -0.955437306357      0.224711662357     -1.177158199669
O      0.783200382291      1.257216425573     -0.725186176202
C      0.409861356757      1.778035065957      0.467852801311
H      0.967003524103      2.688712665959      0.646533467699
C     -0.484302904110      1.324761204827      1.331213980725
H     -1.040930159875      0.417488415432      1.184296220369
H     -0.674423672999      1.867037543657      2.238021640849
C      0.503134832402     -1.138322729825     -0.373343225136
H      1.521863577608     -1.143948313994     -0.010380728230
C     -0.312685338213     -2.147352325096     -0.136356353058
H     -1.330540403535     -2.149888468525     -0.492054186567
H      0.002559423337     -3.015891675777      0.415188940835
