14
OptimizedStructure
C      1.656289955331     -1.503183891202     -0.668422168141
H      2.494636865308     -1.463014454868     -1.342201872881
H      1.664786439830     -2.301361507108      0.056233524330
O     -0.386064734851      2.921892187271      0.076028725318
C     -0.904804313767      1.843408682295      0.023077888635
H     -1.675673644199      1.617732806351     -0.743115667568
C     -0.628493690166      0.692897039592      0.944876568880
H      0.280124550606      0.890750983955      1.515855896203
H     -1.469640633084      0.639154933544      1.642916831894
C      0.669072980700     -0.630540318086     -0.726238606264
H      0.683186998873      0.167363461886     -1.457877157438
C     -0.518463380516     -0.634822333015      0.185773926300
H     -1.427952843175     -0.782718986730     -0.404755884470
H     -0.437004550889     -1.457558603884      0.897847995203
