14
OptimizedStructure
C      0.482648595079      0.221832991343     -1.179754469450
H      1.274639634085      0.256659638175     -1.937811504683
H     -0.423300848520      0.665898903770     -1.618229416653
O      0.955194788935      1.027507801112     -0.123183778518
C      0.068934355066      1.422870846420      0.821384510510
H      0.568481848213      2.077819855498      1.523747887197
C     -1.214445076437      1.123148660178      0.939526293561
H     -1.731876344973      0.461489983878      0.268788696931
H     -1.788909472895      1.537137693390      1.746257919823
C      0.216051225578     -1.212748878883     -0.818721735920
H     -0.254644555556     -1.779351874117     -1.611298538503
C      0.527255301336     -1.774608427864      0.332887994411
H      1.000305200384     -1.216364750744      1.123201449665
H      0.319665349705     -2.811292442155      0.533204691632
