14
OptimizedStructure
C     -0.641347397873      0.098906950754     -1.244392778741
H     -0.104151236183      0.862086772276     -1.831005295658
H     -1.608547336752     -0.076530270564     -1.729391852088
O     -0.948910672074      0.590400398096      0.037241616338
C      0.080373230370      1.150173339662      0.725940926170
H      1.006014529149      1.278122518498      0.172518100352
C     -0.038407155960      1.535489906892      1.985739653130
H     -0.958324833287      1.401100802075      2.524674811612
H      0.782095307821      1.998823293064      2.498592121177
C      0.156819378416     -1.175898106588     -1.256182669745
H      0.424240862734     -1.509414321992     -2.250125147763
C      0.515153193225     -1.856124190792     -0.184743940061
H      0.247343155752     -1.532553356966      0.807229526994
H      1.087648974662     -2.764583734415     -0.256095071717
