14
OptimizedStructure
C      1.262667660229     -1.354733335735     -1.130130235692
H      1.593937542123     -1.567296016190     -2.132387125361
H      1.994977267597     -1.469978089902     -0.348971110697
O      1.351352328534      1.512829600497      0.705607385621
C      0.190612450942      1.783461398068      0.597505508984
H     -0.143731782158      2.838813156738      0.508760526149
C     -0.950130589503      0.806652696623      0.591516123800
H     -1.512026704493      0.975434543328      1.515720698174
H     -1.616089311776      1.057767300671     -0.238035180176
C      0.030623929761     -0.964742610832     -0.868539039112
H     -0.688410302755     -0.844205595044     -1.670154362895
C     -0.485043305569     -0.649049193288      0.501144914746
H     -1.329013213395     -1.305913683349      0.729400315659
H      0.300274030465     -0.819040171585      1.238561580800
