14
OptimizedStructure
C     -0.413980603938     -1.639409716934     -1.647819842819
H     -0.091926862173     -1.820290029281     -2.659053738156
H     -1.311159024453     -2.150165458136     -1.335963727824
O      1.946457426288      1.367866886884      0.795274564840
C      0.819667449966      1.773077847276      0.799657437709
H      0.605117031358      2.861820084273      0.833933132953
C     -0.424348218505      0.933307303723      0.785213675687
H     -0.926005140578      1.101568830772      1.743436339720
H     -1.089682496282      1.314356766258      0.006056425422
C      0.253649819021     -0.847534699343     -0.831062957320
H      1.153127536579     -0.346287050844     -1.161495670201
C     -0.148405643469     -0.559916814719      0.581602469758
H     -1.038264493202     -1.136256771194      0.840325486983
H      0.665753219388     -0.852137178736      1.249896403249
