14
OptimizedStructure
C      0.978725446008     -1.581010131425     -1.645946060684
H      1.676567468601     -2.384814758582     -1.807626137029
H      0.699823410242     -1.009959953600     -2.516441107134
O     -2.019431231201      1.957782752738      0.808102818641
C     -0.897206088886      1.858880207322      1.214119907852
H     -0.480361808193      2.598289067213      1.929457660307
C      0.077951086607      0.779302847767      0.849765585526
H      0.982532768355      1.256556681475      0.462119095383
H      0.362557578575      0.265923466596      1.773394157700
C      0.482320578048     -1.312207184512     -0.453495567973
H      0.777913125060     -1.901867522215      0.405519603810
C     -0.488646627765     -0.212062187176     -0.168625722493
H     -0.740420501985      0.318580999635     -1.087792098413
H     -1.412325203464     -0.633394285235      0.237447864508
