14
OptimizedStructure
C      1.499837962022     -1.302932893496     -0.946155122251
H      2.064811594630     -2.105642711868     -1.388123667626
H      2.021476172235     -0.368036119604     -0.836361991753
O     -1.186473244721      2.981778678665      0.661298741922
C     -0.945160481196      1.851807125778      0.977762931528
H     -1.413310832478      1.399165165021      1.876590926431
C     -0.016894239538      0.921615560397      0.257219496905
H      0.275028996787      1.363646435779     -0.696161937971
H      0.874185357776      0.812597416683      0.882791466359
C      0.246456061213     -1.473700722427     -0.571770085850
H     -0.226122460546     -2.438212483775     -0.711805890678
C     -0.654795862389     -0.452476170062      0.053411652049
H     -1.543217437284     -0.348027575511     -0.577508078090
H     -0.995821586511     -0.841581705579      1.018811559026
