14
OptimizedStructure
C     -0.111360909062     -0.341295757310      0.055771355433
H     -0.967541657506      0.086720089175     -0.482652411062
H     -0.415762701735     -0.527661761445      1.098800618606
O      0.980807703285      0.559843593292      0.039355838771
C      0.794201284157      1.777127905333      0.594856727515
H      1.705409185779      2.354266769527      0.506558917703
C     -0.289843212425      2.268283200962      1.174747870604
H     -1.209402815769      1.721033696982      1.276802786234
H     -0.278313475637      3.264958208755      1.573141418318
C      0.325832195454     -1.627010867079     -0.573705756733
H      1.311177351200     -1.955731000992     -0.275673575321
C     -0.403956953809     -2.325077118984     -1.421774018543
H     -1.384282753962     -1.999964720342     -1.729938222471
H     -0.056963239970     -3.255492237873     -1.836291549053
