14
OptimizedStructure
C     -0.202105895595     -0.250923215647     -0.558151984046
H      0.007487862834      0.466623250716     -1.367728179773
H     -1.294423098502     -0.388491413881     -0.511951772582
O      0.272737839140      0.255032768191      0.669802244970
C     -0.227118303960      1.437258404259      1.090590160135
H      0.223846327875      1.699672731557      2.038845507865
C     -1.123360348065      2.218234398212      0.507429587744
H     -1.591499012206      1.989975781737     -0.432820409305
H     -1.417685690349      3.137136408902      0.977788834991
C      0.448007022547     -1.562189093571     -0.879376528403
H      0.115454977848     -1.992126713730     -1.814919068198
C      1.342534714327     -2.166649254177     -0.122488912714
H      1.668762625216     -1.733510465833      0.806631004981
H      1.777360978889     -3.110043586733     -0.403650485663
