14
OptimizedStructure
C      0.893963750149     -1.323901607505      0.597711632118
H      1.973002511694     -1.128502763857      0.500814048908
H      0.765583844209     -2.233395000533      1.199524733504
O      0.255758997944     -0.242355699291      1.254061747521
C     -0.642060502773      0.411044220514      0.360087687990
H     -1.631024671923      0.452209037573      0.841824979406
C     -0.178444626278      1.838912652255      0.053290716954
H     -0.083443164957      2.397623846064      0.980025807865
H      0.788998548173      1.816327894144     -0.442769983030
C      0.228219766900     -1.426871076925     -0.739368556844
H      0.477931293140     -2.199894344613     -1.441578504556
C     -0.654820090229     -0.453705332722     -0.868110581475
H     -0.899680377074      2.334029366283     -0.591498548703
H     -1.293985278977     -0.241521191389     -1.704015179658
