14
OptimizedStructure
C     -0.473712960427     -0.384011833172     -0.304408288767
H     -0.484577088446     -0.017498668514     -1.340870944543
H     -1.515330471198     -0.419188523637      0.058318688931
O      0.287969113702      0.477373555130      0.519049350684
C     -0.153093580072      1.757556892133      0.612312166360
H     -1.060713035596      1.988307957398      0.062017221118
C      0.477890573349      2.671845180031      1.330328649870
H      1.375547674120      2.432775885082      1.870054212353
H      0.105971625141      3.676298214278      1.390349850758
C      0.117920050166     -1.757712010311     -0.236285515000
H      0.429446810758     -2.056571316057      0.754168934827
C      0.259906499080     -2.558663475787     -1.274149857382
H     -0.040859157597     -2.263568392441     -2.266244295957
H      0.673633947020     -3.546943464131     -1.174640173252
