14
OptimizedStructure
C      1.926050657693     -1.308482803929     -0.390591278215
H      2.766625090427     -1.268956129199     -1.062083995531
H      2.047111132836     -1.923331133171      0.487110353446
O     -1.655540644654      1.301208118865     -1.363197213497
C     -1.316010942354      1.629174683205     -0.262729835329
H     -1.444478458190      2.675393783094      0.085818806847
C     -0.716802630255      0.734976071775      0.783385647631
H      0.178546619940      1.219880000465      1.181094421625
H     -1.441555423187      0.682614483291      1.602015179387
C      0.807023024358     -0.652349079175     -0.629665867867
H      0.703709538441     -0.043045483667     -1.517117974099
C     -0.390194180046     -0.670488791665      0.268297424982
H     -1.251999218796     -1.037847574069     -0.294911170059
H     -0.212484566215     -1.338746145820      1.112575500679
