14
OptimizedStructure
C      0.107558011967     -1.470155620890     -1.810173895778
H      0.630436425864     -1.483445564288     -2.750833059337
H     -0.739324791118     -2.131961251661     -1.726003143472
O      0.511464733469      2.857043269737      0.517716073525
C      0.455605140137      1.750309103826      0.972731897394
H      1.285396615925      1.343320395945      1.587571061821
C     -0.689496080439      0.794842138648      0.812849990865
H     -1.237873220045      0.798676665594      1.759921408426
H     -1.357538103006      1.151556985828      0.027213627687
C      0.481855090288     -0.693729187781     -0.811922212511
H      1.331743584056     -0.031729559085     -0.919566179249
C     -0.208275856586     -0.630331167089      0.515378738181
H     -1.059347746929     -1.313099672395      0.524527437499
H      0.487796196417     -0.941296536389      1.300588254948
