14
OptimizedStructure
C     -0.595157440090     -0.129723582818     -0.853636491754
H     -0.169212325156      0.484938052127     -1.664269447501
H     -1.560942966727     -0.521160519963     -1.182335937159
O     -0.869834769753      0.679232984977      0.270631656519
C      0.113797524545      1.534750127971      0.650209565003
H      0.914251392475      1.685286410393     -0.069847225343
C      0.089970889494      2.175362045875      1.807153140110
H     -0.705213208730      2.019677075311      2.512695101794
H      0.860340653498      2.876821994377      2.063416153605
C      0.350612754055     -1.252485308101     -0.534629078867
H      1.218282253185     -0.962561693573      0.044028090129
C      0.168999095650     -2.504863013906     -0.905079690008
H     -0.694432273350     -2.807735839734     -1.474264171216
H      0.878538420905     -3.277538732936     -0.664071665313
