14
OptimizedStructure
C     -0.288841667940      0.114044022158     -0.914498863250
H      0.653381276200      0.628278535894     -1.157372653741
H     -0.844785182860     -0.043638404929     -1.842777144409
O     -1.107454095654      0.958699862134     -0.127471720524
C     -0.545888254227      1.624682627788      0.907406355406
H     -1.306448746890      2.220495729129      1.395852928697
C      0.710142416077      1.628701269503      1.326120633418
H      1.493942606222      1.047793657649      0.874170780005
H      0.990372724616      2.239666998267      2.163143310316
C      0.001418553430     -1.200900784375     -0.250164053013
H      0.205710595531     -1.142459060604      0.809969382979
C      0.007868674593     -2.359918201796     -0.879608080526
H     -0.202156457255     -2.434218475589     -1.934080635114
H      0.232737558157     -3.281227775228     -0.370690240244
