14
OptimizedStructure
C      1.481929718582     -1.465410171104     -0.706268087864
H      2.019916857464     -2.279905072595     -1.160187003282
H      2.077964919885     -0.761901155864     -0.151281554034
O     -0.944467045374      2.318643272086      2.113743793719
C     -0.883053156154      1.867467617350      1.005643545950
H     -1.537876623073      2.252354019881      0.196316761273
C      0.042523539703      0.778024768010      0.555600505705
H      0.802618826615      1.246485123144     -0.076893120864
H      0.532252664414      0.333884550700      1.423040142855
C      0.173284311733     -1.355695514289     -0.831575270638
H     -0.372967782348     -2.098412724665     -1.400084919905
C     -0.700323106820     -0.281361769972     -0.258317992256
H     -1.234360870675      0.202514272620     -1.083161198808
H     -1.457442253950     -0.756687215301      0.373424398148
