14
OptimizedStructure
C      1.642836373336     -0.627762243704     -0.560251939413
H      2.513454594640     -1.045189654376     -1.036447226353
H      1.793611723655      0.309554690577     -0.051277700671
O     -0.633205564426      1.908225431550     -1.044729096375
C     -0.406987252702      1.730684918367      0.117713218008
H      0.005676968314      2.546338519656      0.748341977649
C     -0.675276126653      0.465420425516      0.882717694284
H      0.104553852164      0.313398613776      1.630645030268
H     -1.612669762302      0.634211271855      1.423209847511
C      0.471130098264     -1.230434528208     -0.622205228476
H      0.380392573125     -2.164113817509     -1.163303844771
C     -0.817110949039     -0.754856383078     -0.022697021213
H     -1.500170634972     -0.506798770937     -0.840890639229
H     -1.266235893406     -1.578678473486      0.539174928780
