14
OptimizedStructure
C      0.344147998014     -1.065871376932     -1.832293387790
H      1.128514411435     -1.263970603579     -2.542121553691
H     -0.649030002164     -0.960583412957     -2.238279625984
O      0.696798941600      2.676867914026      0.438170066551
C     -0.110120978288      1.792977764363      0.391974617865
H     -0.940653501539      1.814645252093     -0.342248887318
C     -0.133017172441      0.585676022263      1.282822251720
H      0.827196427528      0.493133226294      1.793249186681
H     -0.906540708969      0.758901848399      2.037204978864
C      0.580413542423     -0.964086917019     -0.538682384378
H      1.587020409387     -1.072591723127     -0.156546586787
C     -0.466260629605     -0.686542477798      0.495300840577
H     -1.442682413324     -0.581953937111      0.017933441894
H     -0.515786324057     -1.526601578915      1.193517041798
