14
OptimizedStructure
C      0.876564198388     -0.836940286045     -1.392141562684
H      1.460035884328     -1.429627816373     -2.075709288714
H      0.859266273911      0.221792467983     -1.589966881510
O      1.347389932378      1.347888102179      1.225347111939
C      0.391745760117      1.643143846743      0.566911402660
H      0.328734279549      2.632750190089      0.066926589992
C     -0.830990756697      0.794175870511      0.361303887255
H     -1.587895396184      1.186070205872      1.048939043657
H     -1.212495213409      0.934791781940     -0.651277594602
C      0.245187044750     -1.387028335926     -0.372967967361
H      0.314289212730     -2.456620941468     -0.218133928833
C     -0.583122519356     -0.682198272299      0.657695146116
H     -1.539976699614     -1.203189343239      0.753045370511
H     -0.068732000891     -0.765007469966      1.620028671574
