14
OptimizedStructure
C      0.203511330566     -0.778841434937     -1.630510506251
H      0.420254426185     -1.358856081007     -2.511298303995
H      0.231371674348      0.289819989812     -1.755752426228
O      0.823752783610      2.574227428026     -0.257648122952
C      0.748257216022      1.537184899958      0.339484806974
H      1.660503622291      1.015284312537      0.693299354815
C     -0.527167605053      0.843751451754      0.719077218749
H     -0.803815918868      1.236836679324      1.703136567960
H     -1.318434421213      1.122652335853      0.021091773382
C     -0.072987396055     -1.358992356901     -0.478638394578
H     -0.082583912337     -2.440153600648     -0.411496414748
C     -0.382725847880     -0.672292056746      0.817838082837
H     -1.309667021274     -1.093916222648      1.217706409473
H      0.409731069659     -0.916705344378      1.533709954562
