14
OptimizedStructure
C     -0.064632028068     -0.348105986045      0.081464903939
H     -1.007526355018     -0.053320860931     -0.398321768806
H     -0.257202491832     -0.508302249136      1.155036846872
O      0.906464244177      0.670636350645     -0.074386455490
C      0.621799449119      1.888056614444      0.437509234915
H      1.446783031134      2.560491936683      0.241500989124
C     -0.461644051120      2.283222895225      1.087625085395
H     -1.297337976483      1.640252592166      1.296653677007
H     -0.536817186002      3.295740282008      1.436004851622
C      0.470040950762     -1.608702022301     -0.523071168827
H      1.508947052870     -1.803866842143     -0.298637061660
C     -0.238376289765     -2.433778192436     -1.269063815000
H     -1.272722164171     -2.242192155429     -1.503853475614
H      0.182223814397     -3.340132362749     -1.668461843477
