14
OptimizedStructure
C      1.100212681015     -1.569873739270     -1.565293734185
H      1.873286801083     -2.307702228352     -1.694342554601
H      0.747970832501     -1.086618544898     -2.461922854558
O     -0.955452965090      3.022347173147      1.103820607309
C     -1.051711847520      1.828697157506      1.125536020219
H     -2.002172873960      1.337291695652      1.419962822030
C      0.038150127365      0.858150035055      0.783165090961
H      0.874226006306      1.388796306499      0.324891292716
H      0.384300318647      0.417860464563      1.723681198751
C      0.604381263574     -1.275692911627     -0.378847678280
H      0.976290224583     -1.772659519167      0.508156354950
C     -0.467599867378     -0.260285371230     -0.137350556329
H     -0.795588954077      0.166858184654     -1.086500050054
H     -1.326291747049     -0.747168702532      0.335044041071
