14
OptimizedStructure
C      1.292473241853     -1.328281201184     -1.143896211463
H      1.557020193370     -1.556762084851     -2.162094923443
H      2.079383385843     -1.426264284731     -0.413768033414
O      0.116198877203      2.882848971783      0.982682846433
C      0.025520487217      1.838615459766      0.401811507008
H      0.698633205128      1.589349439385     -0.442466476213
C     -0.974494023930      0.761818983435      0.703722727930
H     -1.399511588262      0.928244786874      1.695048518554
H     -1.779473189758      0.861621022658     -0.031507731789
C      0.073536219155     -0.954500321603     -0.803545340620
H     -0.699419092562     -0.864379587390     -1.556714651609
C     -0.360097692562     -0.639495335936      0.593520026541
H     -1.116380419889     -1.367937971336      0.900292431483
H      0.486610397192     -0.724877876871      1.276915310602
