14
OptimizedStructure
C     -0.509974775679     -1.348987769317     -1.769943937753
H     -0.237869273392     -1.438222197313     -2.807640255878
H     -1.477585275348     -1.737884507032     -1.496369602317
O      1.188730642660      2.414386925698      1.721417987833
C      0.769637579954      1.722925719764      0.836681764232
H      1.246376961171      1.727115696835     -0.162604005774
C     -0.407319436262      0.800154463534      0.945728805540
H     -0.794403127328      0.836445925732      1.965664159505
H     -1.179425051544      1.158835380265      0.259697164257
C      0.294385685864     -0.801399180665     -0.878445655874
H      1.262609806553     -0.425935582669     -1.180775156165
C     -0.047060342055     -0.650871015086      0.571662913106
H     -0.904872681319     -1.283045134340      0.808764992584
H      0.796769286724     -0.973518725407      1.186160826703
