14
OptimizedStructure
C      0.522724986408     -0.982802157065      0.489856995365
H      1.380063677138     -1.620255821809      0.733091211709
H     -0.331458168461     -1.289723028968      1.109848514647
O      0.940206187559      0.324645710814      0.830690948317
C     -0.005172900835      1.294684044048      0.712698903755
H     -0.998507852479      0.954910583123      0.436182264991
C      0.263680071676      2.571534901703      0.927386436913
H     -0.503434995726      3.316539883585      0.841382252070
H      1.252487437668      2.894740687544      1.196427237321
C      0.186634719372     -1.118667490343     -0.967073504811
H      0.905851243961     -0.666988549548     -1.636844317010
C     -0.895560371460     -1.716548422137     -1.426691960937
H     -1.096136033700     -1.798968873561     -2.480951081889
H     -1.621378001120     -2.163101467387     -0.766003900439
