14
OptimizedStructure
C     -0.672454130401     -0.146539449822     -0.791242251217
H     -0.396961626905      0.543241375929     -1.606515327195
H     -1.629461590594     -0.613331821145     -1.036699797231
O     -0.892103296931      0.579124409760      0.399976903128
C      0.046243293689      1.506691601446      0.720360557211
H      0.744472429327      1.766799232156     -0.071276248356
C      0.093718701101      2.087581774486      1.907703133046
H     -0.600448157262      1.823536644236      2.684077351567
H      0.821203246720      2.847196292545      2.119689058396
C      0.400697622260     -1.186758688245     -0.639156434490
H      1.297666878749     -0.841954112282     -0.140853969608
C      0.292994680731     -2.432216034502     -1.058564653314
H     -0.597551757848     -2.789928812541     -1.548650776079
H      1.091983707362     -3.143442412021     -0.938847545856
