14
OptimizedStructure
C      0.895985870201     -1.839644300913     -1.012651924016
H      1.235940334068     -2.122150707244     -1.994201167997
H      1.337890277107     -2.370347289696     -0.184745830264
O     -1.008358335358      2.989771042867      0.500096706558
C     -0.442629819770      2.013933929342      0.094870004630
H     -0.245688779765      1.878771874162     -0.986247828959
C      0.061829519977      0.890584915131      0.950576896956
H      1.150832024336      0.861087030477      0.857615436822
H     -0.200046633841      1.090861655535      1.991119576248
C     -0.014447230896     -0.902191645229     -0.828499001775
H     -0.445540473157     -0.391263233327     -1.678760598920
C     -0.509745232003     -0.473747719566      0.518042693909
H     -1.600511090610     -0.411299109562      0.508677101181
H     -0.215510430290     -1.214366441979      1.264107935627
