14
OptimizedStructure
C      1.415619811374     -1.409475013750     -0.938262907053
H      1.917640008110     -2.233470700283     -1.416068940620
H      2.035703225923     -0.563966929016     -0.694551031662
O     -1.998069327736      1.776861704778      1.229189402478
C     -0.823113401822      1.890490796382      1.024841325194
H     -0.279355867080      2.812240570681      1.319252034385
C      0.060519724996      0.867706559109      0.375184137391
H      0.522504139865      1.336168976776     -0.498272146658
H      0.864730415805      0.631022679898      1.077351083312
C      0.122594754734     -1.453503592752     -0.677121268714
H     -0.443827950238     -2.335743126995     -0.948926893195
C     -0.702287457237     -0.390793063104     -0.022356146386
H     -1.516517358284     -0.113101992804     -0.698682513665
H     -1.176140718411     -0.814436868919      0.868423865193
