14
OptimizedStructure
C     -0.035124527471     -0.204542051670     -0.648735348330
H      0.497777878774      0.328737212719     -1.454544207175
H     -1.110356431351     -0.182518078911     -0.877014705379
O      0.222324101804      0.426123610454      0.590646031894
C     -0.114703096919      1.738228324146      0.673721875223
H     -0.525247697767      2.181117034056     -0.229235077234
C      0.047945688025      2.440791809096      1.782645126681
H      0.454154650977      1.992375700130      2.670522471896
H     -0.222807547662      3.478176449010      1.820271892039
C      0.461458654053     -1.615386460642     -0.579956552036
H      1.412645016810     -1.725496693617     -0.079455689667
C     -0.179925278091     -2.654699431317     -1.077321505751
H     -1.133169109891     -2.552885274363     -1.570109972459
H      0.225027698709     -3.650022149091     -1.021434339702
