14
OptimizedStructure
C      0.591471573510     -1.104293463812     -1.771307994154
H      1.461328201161     -1.451734704775     -2.302415647999
H     -0.230947637288     -0.757498146513     -2.373907414198
O     -0.297948905931      2.006244451592     -0.706320063686
C     -0.043422684664      1.835540742722      0.450537602944
H      0.378880167408      2.655466147392      1.069255379595
C     -0.262723075413      0.569861974075      1.228643916660
H      0.642622481499      0.355287108391      1.802247789600
H     -1.057527440605      0.780136282527      1.951443252908
C      0.534399443285     -1.092812066908     -0.454089539452
H      1.377076884331     -1.435813661051      0.134441975803
C     -0.642952947544     -0.616178054684      0.338545485418
H     -1.443420987167     -0.312827637346     -0.337200689073
H     -1.006835072583     -1.431378971609      0.970125945633
