14
OptimizedStructure
C     -0.343190951533      0.014550382647     -1.046696942990
H      0.360437414197      0.701709564386     -1.542248438362
H     -1.339860245477      0.195341594958     -1.482786484527
O     -0.392559159139      0.264797313904      0.338004675675
C      0.022109374076      1.478235532956      0.772385086121
H      0.468846745884      2.126418473138      0.022277405602
C     -0.091414444760      1.855621048317      2.035473464474
H     -0.535526305221      1.211437968835      2.771637237802
H      0.263405899736      2.816011722222      2.355336171256
C      0.066066612604     -1.399424094639     -1.339962206383
H      0.072615052292     -1.639606421426     -2.394811137775
C      0.391920931121     -2.290510848978     -0.424610049586
H      0.378139857858     -2.040575630664      0.622122986825
H      0.679009218362     -3.294006605656     -0.686121768134
