14
OptimizedStructure
C      0.375442595654      0.036739975621     -1.275442213041
H      1.062957220042     -0.058587748846     -2.122634643406
H     -0.653540466093      0.109005484475     -1.655699497799
O      0.754224479741      1.254304656242     -0.647145844670
C     -0.125242514266      1.703239333828      0.309722892237
H     -0.829354560510      2.449039965240     -0.053038724072
C     -0.115714101960      1.311035197081      1.569494251593
H      0.580211194509      0.571380544141      1.925195550349
H     -0.802651020077      1.726194915559      2.284169905884
C      0.513890205690     -1.152088012400     -0.371725947360
H      1.497678389066     -1.280067714625      0.058923982796
C     -0.469955891060     -1.982988754381     -0.085270561209
H     -1.455732730247     -1.858941956849     -0.503721015013
H     -0.332212800491     -2.828265885086      0.567171863711
