14
OptimizedStructure
C      1.384959777919     -1.700449146679     -0.488950355042
H      1.991550176025     -2.375397410849     -1.067711500024
H      1.773627063089     -1.427838604398      0.477744614100
O     -0.759527874696      2.456798279353      2.020584194510
C     -0.889269865768      1.908083215066      0.963651340334
H     -1.763641222846      2.120497430959      0.314185089337
C      0.061838123113      0.908644371031      0.377187171977
H      0.596997527194      1.411728892914     -0.434308913958
H      0.787673784691      0.613122752725      1.134306984873
C      0.232832500861     -1.243276824730     -0.942452182011
H     -0.117925679546     -1.555946855352     -1.916959101120
C     -0.677067937836     -0.306826757178     -0.196337281478
H     -1.466922269865      0.040005910927     -0.865743552436
H     -1.155124102333     -0.849145253787      0.624803490938
