14
OptimizedStructure
C      1.401394145579     -0.971741121172     -1.161684257861
H      2.060059515743     -1.648845925811     -1.677129490761
H      1.806909251234      0.003411934413     -0.945025640931
O     -0.725035271770      2.646349317282      1.721906104233
C     -0.456862298892      1.873656996288      0.846470921799
H     -0.338071202138      2.217713926065     -0.202112145385
C     -0.233455527694      0.402050834395      1.021656779061
H      0.850503408611      0.261538181908      1.061500105070
H     -0.634606501408      0.093629216233      1.987922511031
C      0.173740801384     -1.320920503945     -0.825370347293
H     -0.189972205944     -2.305683780253     -1.086200570875
C     -0.820758625137     -0.436220013144     -0.125786514890
H     -1.257535019737      0.234423044087     -0.874241858421
H     -1.636310469830     -1.049362106345      0.258094405225
