14
OptimizedStructure
C      0.087311278415     -0.075225683807     -0.849271656336
H      0.036970400572      0.113224591801     -1.931910899280
H     -0.929947086041     -0.127298536529     -0.458382078846
O      0.822039393753      0.995905432270     -0.272102661569
C      0.241159498189      1.832717889495      0.613659373792
H      0.992489573511      2.529786241541      0.964592552552
C     -1.006471279583      1.906074395075      1.050074187014
H     -1.799796161237      1.250285257956      0.739200156479
H     -1.271727281709      2.660134363987      1.765939934290
C      0.806792702411     -1.368312028297     -0.600939280924
H      1.873016815796     -1.327020322611     -0.772968072499
C      0.219355695329     -2.477211626086     -0.195560313042
H     -0.842157045444     -2.525048157933     -0.013797509544
H      0.770963496037     -3.388011816864     -0.038533732088
