14
OptimizedStructure
C      1.370986181301      0.008761093213     -0.685368873257
H      2.035991111748     -0.096874564259     -1.543790626628
H      1.993860112028      0.153530460119      0.217000432767
O      0.687877823960      1.272125570614     -0.877262628069
C     -0.348587585289      1.461594821900     -0.063297330087
H     -0.820149621600      2.422415850278     -0.167263575115
C     -0.759821364120      0.441544175766      0.922625652486
H     -0.029186703468      0.404099553385      1.743948603384
H     -1.729009216559      0.698856781294      1.349208647806
C      0.458679628712     -1.141177771677     -0.538568592261
H      0.504339341586     -1.941722513367     -1.252619011435
C     -0.785532208724     -0.945888707015      0.256480359694
H     -1.677941263932     -1.010363794976     -0.383206148478
H     -0.901506235643     -1.726900955275      1.022113089194
