14
OptimizedStructure
C      1.019836044714     -1.727643327791     -1.616849790771
H      1.680701572742     -2.575133716807     -1.670049452277
H      0.582948596180     -1.403825086309     -2.547495553989
O     -1.949496165822      2.006775684673      2.022045589052
C     -1.106207253704      1.802247193309      1.196287130990
H     -0.872382463785      2.559411445540      0.419405868979
C     -0.268306480161      0.563164822989      1.091302862472
H      0.729924518756      0.825140372873      1.457153462469
H     -0.679841473389     -0.211226173166      1.741016110797
C      0.756582195767     -1.117136728913     -0.476949029008
H      1.208645709500     -1.465872650578      0.441638415079
C     -0.158634559122      0.068343180530     -0.351376212154
H      0.208983472972      0.878353021166     -0.988438186729
H     -1.152753714647     -0.202598037515     -0.717691214909
