14
OptimizedStructure
C      1.311459246520     -1.994597196414     -0.635776484987
H      1.862924159610     -2.495775452322     -1.412680520094
H      1.535791457526     -2.292629214213      0.375527455228
O     -2.221550435191      1.880319071725      0.991169629138
C     -1.024064944700      1.881163156611      1.040087514027
H     -0.492100702136      2.415572530701      1.852384312406
C     -0.129002617075      1.167093564269      0.065447098126
H     -0.370184371784      1.514585629874     -0.942187739259
H      0.919698244503      1.376646927289      0.273907294123
C      0.403901781884     -1.074845102961     -0.902739037763
H      0.197165734325     -0.791451854170     -1.926753071462
C     -0.392951630385     -0.349106087518      0.132476034680
H     -1.459615715718     -0.516302207829     -0.038606111842
H     -0.141470207379     -0.720673765043      1.127743627678
