14
OptimizedStructure
C      0.393164839566     -1.939923583462     -1.376110151656
H      0.584932416199     -2.981080369982     -1.183440798578
H      0.193464817248     -1.673049977311     -2.401196420001
O     -1.929157396266      0.270106588753      1.315217671474
C     -0.969415092896      0.934125802963      1.581657764229
H     -0.870187721483      1.423206134507      2.573772261254
C      0.187493613219      1.223203926008      0.668021110974
H      0.162948394208      2.298029974413      0.461904619084
H      1.115232529117      1.026478203164      1.211777227835
C      0.396923727206     -1.038300634184     -0.412783977248
H      0.594022677341     -1.338323005994      0.607683563888
C      0.132912702010      0.424483779017     -0.631009085984
H      0.864661255750      0.825412685178     -1.337384675825
H     -0.856996761217      0.545630476930     -1.078109109445
