14
OptimizedStructure
C      0.364284892906     -1.012217936676      0.802512342494
H      1.156455610260     -1.760800613668      0.852699819011
H     -0.601406146926     -1.492885511615      0.979104459051
O      0.577575813248     -0.058363809092      1.825779511454
C      0.189704374997      1.149821720161      1.366618631810
H     -0.118602452255      1.858103517242      2.116085755660
C     -0.216012569248      1.137541081703     -0.049851706409
H     -1.318690918963      1.117808253388     -0.171479867848
H      0.158330304934      1.982419824473     -0.624936944768
C      0.340247675655     -0.209435976341     -0.529489572958
H      1.403054096248     -0.103090654337     -0.813930725274
C     -0.506548726614     -0.744645238826     -1.602077276186
H     -0.943049909927     -0.073095625240     -2.312428816891
H     -0.485342044315     -1.791159031170     -1.838605609147
