14
OptimizedStructure
C     -0.273855886680     -0.030598376469     -0.768376221549
H      0.021512965941      0.600324728454     -1.625254629839
H     -1.325544130818      0.207101573636     -0.536505037116
O      0.548959267832      0.250386012645      0.346299501611
C      0.468950800220      1.546127835572      0.794450276163
H      1.253757539668      2.199887721703      0.419675689830
C     -0.453131011662      1.972469934411      1.636985603070
H     -1.224338338076      1.315946665152      2.002844955470
H     -0.456050548858      2.985383035778      1.995237120645
C     -0.167609680552     -1.472198708821     -1.159493767696
H     -0.772801690344     -1.734171330847     -2.017410829349
C      0.580650549102     -2.363567899646     -0.540124242323
H      1.176843230662     -2.086726154833      0.311453160334
H      0.622656933565     -3.390365036733     -0.859781579251
