14
OptimizedStructure
C      1.682482136500     -1.780746145778     -0.426137729513
H      2.671930517133     -1.916205645828     -0.827632094012
H      1.296173488499     -2.590054701856      0.171947055589
O     -1.309829006697      3.022187023069      0.255035538796
C     -1.454125559302      1.833082587725      0.251200319566
H     -2.394494122872      1.373348254875     -0.117916064267
C     -0.445535639434      0.832863737659      0.732713408434
H      0.534566189134      1.312008487387      0.775674334806
H     -0.726735757899      0.581496707651      1.758812036711
C      0.976844793174     -0.690487018375     -0.657228132335
H      1.385427965482      0.109688414356     -1.260718348553
C     -0.401580719445     -0.445174847395     -0.128310059363
H     -1.084380817848     -0.331922399895     -0.976085460356
H     -0.730743466426     -1.310084453594      0.448645194498
