14
OptimizedStructure
C      1.511335443439     -1.377252673519     -0.696381345940
H      2.143997209692     -2.247191192186     -0.663979579714
H      1.983089441492     -0.467352444918     -1.029856123849
O     -1.050731133094      2.717727512352      1.522261779247
C     -0.752788742944      1.579570873021      1.296039219791
H     -0.892837705300      0.788864117445      2.061581568650
C     -0.158492509353      1.072575695548      0.016243416041
H     -0.294803683465      1.824532470581     -0.761681537138
H      0.914487968285      0.978608373663      0.202690030693
C      0.237949090138     -1.436220402024     -0.354395576496
H     -0.185207344731     -2.384312392989     -0.049580518626
C     -0.737628311571     -0.292910904820     -0.391232160740
H     -1.134239891375     -0.222603433289     -1.407868048754
H     -1.584129831212     -0.534035598866      0.256158876836
