14
OptimizedStructure
C      0.784646000596     -0.765900149994     -1.532568161017
H      1.397180630736     -1.324948004675     -2.219063999590
H      0.599776798043      0.259570264479     -1.801756590397
O      0.828503128304      1.800896723348      1.845068229148
C      0.422784492077      1.585775215049      0.737716843053
H      0.987066195385      1.940448405687     -0.146321530089
C     -0.831494326964      0.815901248711      0.430136952439
H     -1.595238946214      1.106025366189      1.154588119317
H     -1.187354209756      1.027411652263     -0.576985391446
C      0.300170074736     -1.322617222215     -0.439180167659
H      0.520191155633     -2.363467193109     -0.233952625686
C     -0.572147179373     -0.689710790079      0.600386655924
H     -1.533655042846     -1.213711555232      0.598921978921
H     -0.120428770358     -0.855673960423      1.583009687084
