14
OptimizedStructure
C     -0.523258253008     -0.076701907542     -1.026539000088
H      0.469459351821     -0.477828379199     -1.274164040152
H     -1.123962267639     -0.018407219529     -1.940519646148
O     -0.417292722354      1.268980866440     -0.584519873955
C      0.431669888889      1.455429072522      0.481872131082
H     -0.051387385033      1.441287458275      1.455893751597
C      1.725971875097      1.673445655077      0.346132751982
H      2.193698262776      1.685433483427     -0.623754375243
H      2.352555183097      1.859107862541      1.198944595049
C     -1.206319900551     -0.958876783860     -0.022665241906
H     -2.155579846578     -0.583801248176      0.335705816129
C     -0.707682519682     -2.094428825291      0.426490973726
H      0.241633957717     -2.471343603125      0.081438741062
H     -1.229505624553     -2.702296431561      1.145683416865
