14
OptimizedStructure
C      1.799834018128     -0.663830494645     -0.419669988686
H      2.614593596119     -0.834628187037     -1.101818774681
H      2.062219778939     -0.182186873985      0.508088237482
O     -0.964565282245      1.533586222854     -1.320608703053
C     -0.825829912476      1.648580074810     -0.137299989286
H     -0.801761653671      2.650597661698      0.340699104546
C     -0.684366736142      0.525671810485      0.848595620976
H      0.211393297007      0.708386762587      1.445135772749
H     -1.536636616704      0.584168231236      1.532543949145
C      0.565702300617     -1.026469897043     -0.715144603800
H      0.369404749986     -1.512222964563     -1.660758332406
C     -0.635313552770     -0.843542394852      0.170406761385
H     -1.538643327601     -0.965482421935     -0.429057265205
H     -0.636030659185     -1.622627529608      0.938888210833
