14
OptimizedStructure
C      1.795886477112     -0.994585053111     -0.725982129645
H      2.400140296604     -1.020547784328     -1.615861121821
H      2.320037976505     -1.109652621919      0.209617085018
O     -0.052249434078      1.764608660176     -1.095808352204
C     -0.677750667594      1.742423217399     -0.077059474757
H     -1.126306316389      2.676054256288      0.329598351411
C     -0.984075209522      0.572399844671      0.810968247647
H     -0.649296876492      0.865082474463      1.810316892714
H     -2.075592803073      0.518920357132      0.865245004109
C      0.488971394162     -0.820222008729     -0.775154553904
H     -0.011487694218     -0.706032455701     -1.725410123754
C     -0.392432533192     -0.806371867170      0.437600089037
H     -1.217251930658     -1.502188942890      0.263883737467
H      0.181407320833     -1.179888076281      1.288046348681
