14
OptimizedStructure
C      1.444865573447     -1.316809594774     -0.918839726415
H      1.964567396827     -1.801543242110     -1.726953064826
H      2.061602246867     -0.975029155884     -0.103672300889
O     -0.981604278018      2.827413776215      1.359973670685
C     -0.777118474819      1.953720141054      0.566127411034
H     -1.126265057089      2.041445856763     -0.483294906551
C     -0.040587575268      0.677916326701      0.845334035973
H      0.970597653886      0.826725546301      0.457727071659
H      0.035392060669      0.539888400524      1.924390208997
C      0.133988811429     -1.164087723498     -0.933753318076
H     -0.434592371978     -1.549236662746     -1.769952038652
C     -0.691256822404     -0.531095677050      0.151859453944
H     -1.653518828309     -0.230985049019     -0.269812067428
H     -0.906070335240     -1.298322942477      0.900865570546
