14
OptimizedStructure
C     -1.007942247866     -0.005822208439     -0.889393798871
H     -0.836150101461     -0.374589977546     -1.908429064027
H     -2.088416526932      0.152541003743     -0.757869916294
O     -0.417878696560      1.294462646319     -0.873267546130
C      0.414182293147      1.781130958598      0.069043157407
H      0.617936548383      2.814360382827     -0.193528513743
C      0.975200337741      1.251443971965      1.144100441320
H      0.837859845520      0.237103305522      1.462856357593
H      1.626630810124      1.860808735318      1.742808336284
C     -0.557549264966     -1.045020833711      0.091056489622
H     -0.977350656183     -0.969714029696      1.085260844684
C      0.239886939256     -2.047257237460     -0.231656833616
H      0.654399037828     -2.144490024368     -1.221580812893
H      0.519191681969     -2.804956693073      0.480600858665
