14
OptimizedStructure
C     -0.583169874380      0.027498377864     -1.058440185265
H     -0.095712642806      0.673173895871     -1.806050858238
H     -1.427148633334     -0.486259080980     -1.525345208383
O     -1.186003008460      0.838436423001     -0.055904676996
C     -0.370947815751      1.718216062048      0.610727690660
H     -0.525573870610      2.754559541158      0.318026941781
C      0.479508406797      1.394240470079      1.567733842434
H      0.623118233273      0.373942180999      1.879033164074
H      1.051789690322      2.150022419569      2.074376229098
C      0.409446942871     -0.972131380289     -0.539461465961
H      1.367301453704     -0.569429869822     -0.238757124339
C      0.158499918563     -2.263547204579     -0.436349158078
H     -0.790437191984     -2.680320973716     -0.731483183681
H      0.889328391794     -2.958400861204     -0.058106007106
