14
OptimizedStructure
C      1.093891211903     -1.184729982973     -1.654956292635
H      1.943166617117     -1.790874299948     -1.921353766080
H      0.730180932246     -0.511145573069     -2.413280381695
O     -0.894765303293      2.398445138405     -0.210354708763
C     -0.490858563863      1.941630494895      0.819971207231
H     -0.210900544178      2.602521100814      1.665943769911
C     -0.305832125074      0.485006080565      1.134485827286
H      0.737385238376      0.354732366963      1.436980355812
H     -0.913677485518      0.268811771508      2.016805213888
C      0.522712496343     -1.259930089949     -0.468352868031
H      0.905579629306     -1.942467533811      0.280935112795
C     -0.653819855630     -0.437972739152     -0.044119038865
H     -0.990180776748      0.179815072969     -0.879219621908
H     -1.472881470987     -1.103841807217      0.236515191054
