14
OptimizedStructure
C      1.050970486737     -0.967967338560     -1.293728069393
H      1.377921828111     -1.485691927515     -2.179393080908
H      1.634552218385     -0.111891266960     -0.999215707056
O      1.350409490056      1.440240672889      1.174215567718
C      0.318703334576      1.720973320877      0.634712715638
H      0.123835093240      2.755202294705      0.282266816380
C     -0.836897273771      0.794055157919      0.392024767598
H     -1.628762447999      1.126139656840      1.071431625316
H     -1.203762140129      0.949778753847     -0.624930255027
C      0.002477116269     -1.368754914458     -0.599295531413
H     -0.554267802827     -2.239782359035     -0.919044832269
C     -0.504750730724     -0.683068924903      0.638846285491
H     -1.391508224398     -1.201451756478      1.004043334328
H      0.261079052476     -0.727781369167      1.418066363597
