14
OptimizedStructure
C      1.298092284017     -1.366018975421     -1.220140692731
H      1.908988728506     -2.208573185122     -1.495039254369
H      1.611522544988     -0.411739650619     -1.610470666876
O     -2.039284850252      1.892554018028      0.938200215487
C     -0.843492810234      1.903593108364      1.007841552141
H     -0.304850957826      2.768407902261      1.448481779077
C      0.075387003971      0.816194327035      0.537966964681
H      0.748259937898      1.252699849735     -0.204107506060
H      0.696391631773      0.509826579820      1.384699448005
C      0.228226917187     -1.502895983643     -0.458711753251
H     -0.047876196217     -2.487032904115     -0.104336754880
C     -0.679298955308     -0.382771048071     -0.038101259985
H     -1.265119359844     -0.043929288833     -0.897299150949
H     -1.386945918657     -0.740314749419      0.711017079709
