14
OptimizedStructure
C      0.813100005321     -0.213687688946     -1.342093101039
H      0.811268854456     -0.242922114936     -2.437032943400
H      1.779283851843     -0.625159538784     -1.008310479158
O      0.834642534143      1.148448475487     -0.996558252593
C      0.111505190176      1.506555937166      0.066324987673
H      0.256653698715      2.550968747364      0.305392202732
C     -0.415774240010      0.614796203948      1.121004079366
H      0.292122333810      0.609548412315      1.966357629797
H     -1.339478283185      1.052717011443      1.508598910797
C     -0.316656285418     -0.987941003001     -0.781585677234
H     -0.391053163395     -1.995949271703     -1.166695464200
C     -0.655522817805     -0.821015434818      0.656508626650
H     -1.705069662607     -1.085724381975      0.811686910934
H     -0.075022016044     -1.510635353560      1.296402569676
