14
OptimizedStructure
C     -0.085381531624      0.002334045168     -0.852789296915
H     -0.304297798774      0.308623555059     -1.886432457234
H     -1.006949494376      0.058709496813     -0.271535933273
O      0.908953434516      0.888135572186     -0.355874866511
C      0.647552889213      1.703240236822      0.687928451145
H      1.554750310375      2.242381493549      0.932621689008
C     -0.468233925865      1.911867691605      1.369042097840
H     -1.401926267073      1.415264816367      1.174953168519
H     -0.468916312448      2.617287315965      2.177629575730
C      0.446172733508     -1.400819026240     -0.850256089336
H      1.454056376188     -1.497904243957     -1.228248115325
C     -0.229240428171     -2.448353167939     -0.419486526279
H     -1.231823787433     -2.359415498888     -0.033413850374
H      0.185283801965     -3.441352286510     -0.444137846996
