14
OptimizedStructure
C     -0.029426687378     -0.699135782637     -1.782800412815
H      0.136014583261     -1.253658081071     -2.690690248274
H     -0.082194070172      0.369573005956     -1.891302915911
O      1.698852950230      1.317869572911     -0.239397279977
C      0.917406013092      1.478121949992      0.653812805502
H      1.170238083277      2.143610347181      1.505785695482
C     -0.440636470876      0.838315483990      0.765946469608
H     -0.913145522937      1.152261057106      1.697062539984
H     -1.058129203946      1.180171436614     -0.067608172661
C     -0.122264315828     -1.312212129600     -0.619279842345
H     -0.038446123995     -2.391939757172     -0.577693583169
C     -0.361777421362     -0.695401425494      0.725765206330
H     -1.304110902133     -1.096181880149      1.114613950198
H      0.427619088765     -1.031393797627      1.405785788048
