14
OptimizedStructure
C      0.285203261465     -0.135230522852     -0.787556645010
H      0.992138577666      0.193262593521     -1.567600660032
H     -0.732863528656      0.078970834752     -1.136908698419
O      0.574671728162      0.574920786052      0.401151942985
C     -0.238162458029      1.604123198008      0.736141441999
H     -1.109128847234      1.749526065776      0.102104616725
C     -0.000197843908      2.384533182600      1.777789971763
H      0.863125263884      2.236200437481      2.399625532852
H     -0.670256321134      3.183758868777      2.028424537948
C      0.461947531838     -1.605728510391     -0.552160394106
H      1.328798710877     -1.857895842467      0.041367196453
C     -0.352841958348     -2.535006655411     -1.011939647177
H     -1.223243574731     -2.289795909296     -1.598881501972
H     -0.179190541851     -3.581638526550     -0.831557694008
