14
OptimizedStructure
C      0.901521730122     -1.769906326816     -1.506120977322
H      1.271014051817     -2.780333514631     -1.466509946603
H      1.111412631633     -1.221538175352     -2.410122811370
O     -2.082241213008      1.224791844520      1.464413611076
C     -0.910965504543      1.427900254336      1.609398624076
H     -0.534295874202      1.999361504097      2.482122347531
C      0.185990190066      0.972760613972      0.690465431401
H      0.728628963742      1.865107351870      0.369437553804
H      0.888164205528      0.387094120054      1.290875501468
C      0.221713047480     -1.232112457980     -0.511448092171
H      0.020283027502     -1.804743878015      0.385191332866
C     -0.322019734436      0.160405354064     -0.510621282019
H     -0.065448605545      0.657666928954     -1.446271649887
H     -1.413756916156      0.113546380926     -0.440809642850
