14
OptimizedStructure
C      1.413045183043     -1.303810230127     -1.162796468352
H      2.099782976993     -2.101877023058     -1.386296245467
H      1.625320162849     -0.355146994194     -1.626321389932
O     -1.060115770487      3.019763409825      0.672819956983
C     -1.007509763280      1.855501228819      0.949866128429
H     -1.744295613236      1.400407000603      1.643759004829
C      0.012178767393      0.882553357973      0.438953091775
H      0.581535050980      1.345523753138     -0.366585682708
H      0.696932365065      0.670364243871      1.266058799052
C      0.372948341822     -1.487049044144     -0.371159045404
H      0.198480576570     -2.463003053104      0.061891020976
C     -0.636651124667     -0.430751711343     -0.015504867637
H     -1.267884608396     -0.229889946373     -0.886204627743
H     -1.283766544648     -0.802584991883      0.781520325198
