14
OptimizedStructure
C      0.781822727172     -1.506764164179     -1.375624197405
H      0.803112097384     -1.635556890282     -2.444087801312
H      1.579214838234     -1.976962211180     -0.823013217132
O     -0.918306160493      2.759560461509     -0.129532637612
C     -0.187124349624      1.819819773828      0.005069225001
H      0.617988620545      1.610262016770     -0.726287229842
C     -0.223505806037      0.852380548235      1.152465292348
H      0.693250274386      1.033228471731      1.720262450645
H     -1.071863051225      1.095970055036      1.793024151727
C     -0.167718134155     -0.817443360609     -0.772256910287
H     -0.960925418680     -0.356696629533     -1.347739290324
C     -0.265128214822     -0.630462415767      0.710736739162
H     -1.215818243470     -1.058175610745      1.038786302131
H      0.535000820785     -1.189160044814      1.198197122901
