14
OptimizedStructure
C      1.505584706396     -1.260782133599     -1.000953690650
H      2.054844072010     -2.029902817908     -1.516448610775
H      2.059985989389     -0.369659556733     -0.761946396094
O     -1.935901150711      2.235988479488      0.468259503839
C     -0.974007902472      1.798099082288      1.033944812359
H     -0.781252676971      2.050571812944      2.096058494163
C      0.036288973664      0.873680149812      0.413279497782
H      0.421529892066      1.346834650833     -0.492859407083
H      0.858141274078      0.682740345014      1.102088169271
C      0.233020148518     -1.418504080788     -0.690668057494
H     -0.271386787439     -2.339524402491     -0.956160118405
C     -0.650669568482     -0.439661881903      0.017655408302
H     -1.503816324670     -0.207013844413     -0.626771302253
H     -1.052360645376     -0.922865802544      0.914521697038
