14
OptimizedStructure
C      0.498531862569     -0.231099808056     -1.485284825135
H      1.333924444210     -0.258674260083     -2.193176290590
H     -0.374902124499     -0.666043143402     -1.997308647581
O      0.198835535013      1.129621900593     -1.301195600688
C     -0.147802247477      1.503361634318     -0.067885602525
H     -0.441261135603      2.543650282070     -0.041429153447
C     -0.594334938412      0.622918961098      1.032585863519
H     -0.298135017963      1.082235908306      1.979437232187
H     -1.696665982007      0.599500556181      1.041812297935
C      0.816729963880     -0.978948924974     -0.248574112122
H      1.174915780187     -1.984326239715     -0.424197098138
C     -0.061427480062     -0.806065901080      0.938758592826
H     -0.913385624479     -1.510308947998      0.923595036156
H      0.504976964644     -1.045822017258      1.842862307605
