14
OptimizedStructure
C      1.120196961228     -1.630459234899     -1.479639925433
H      1.706822444453     -2.530973508656     -1.541424982808
H      1.158890681803     -0.977241264086     -2.336201806269
O     -2.078493610390      1.814970056235      1.356100954804
C     -0.909954332150      1.902822251046      1.104776671487
H     -0.433924041808      2.894638295554      0.970233596277
C      0.014495832822      0.731268240878      0.920905916866
H      1.041308652158      1.064572187727      0.773576768803
H     -0.034853876303      0.109304833514      1.818109993924
C      0.385693112765     -1.344190979098     -0.421610005959
H      0.364182651207     -2.015570327892      0.427182594954
C     -0.449405136232     -0.112821688195     -0.281312663623
H     -0.391268997340      0.485432217045     -1.192671312049
H     -1.493690342214     -0.391751079173     -0.118025800973
