14
OptimizedStructure
C      1.450586142140     -1.399287122738     -0.959476554864
H      2.003985608580     -2.291502416640     -1.195604776979
H      2.002914156372     -0.475772576887     -1.015283498643
O     -1.100168101846      2.349405404426      2.071851610969
C     -0.861375021194      1.895319125246      0.989234347108
H     -1.272427522707      2.363474736849      0.070772518814
C     -0.009701997140      0.693603738155      0.713873322082
H      0.933093812524      1.061406164497      0.300600150226
H      0.206148431428      0.171303367879      1.647170187855
C      0.174017265781     -1.443674100345     -0.627346362775
H     -0.333836867863     -2.398079059003     -0.594975018198
C     -0.675973818565     -0.248206125160     -0.295996607928
H     -0.886438132794      0.307230795858     -1.215638799047
H     -1.630823954717     -0.585221932138      0.110819481380
