14
OptimizedStructure
C      0.352786959213     -1.715341914249     -1.294062663174
H      0.257292384789     -1.974840137268     -2.333881359860
H      1.178034957930     -2.164625705130     -0.764505225039
O      0.186213775791      1.621976433958     -1.285256583962
C      0.316306621422      1.840540470971     -0.116967904726
H      0.677138244831      2.832856834343      0.234242592865
C      0.049911092948      0.928070786535      1.043986918854
H      0.973743497736      0.918480366453      1.629545772112
H     -0.690693447869      1.443702848795      1.662731866966
C     -0.485102241155     -0.885375830695     -0.702500788712
H     -1.302749434750     -0.447871093376     -1.256149495502
C     -0.404677521211     -0.520031183929      0.749357955513
H     -1.393293825029     -0.669801903878      1.190801528100
H      0.285088935355     -1.207739972528      1.242657386564
