14
OptimizedStructure
C      1.178216103029     -1.438830534007     -1.604349637708
H      1.966017554265     -2.154268466253     -1.767414769177
H      0.856076235191     -0.878605229050     -2.466765274768
O     -1.557098153905      2.486933084248      0.259462996331
C     -1.101277173330      1.780109257369      1.112936919693
H     -1.489376788400      1.826219353269      2.150512696716
C     -0.010055961971      0.768378795668      0.895177626658
H      0.863058537279      1.286032242259      0.490237782091
H      0.264695531613      0.287890312998      1.833909823353
C      0.628482637371     -1.260690284315     -0.418416124002
H      0.968902115038     -1.833665523493      0.434838376945
C     -0.466134842368     -0.282293350092     -0.134855783351
H     -0.767281770212      0.226766743400     -1.051194090975
H     -1.334224023599     -0.813976402000      0.265919458195
