14
OptimizedStructure
C      1.387803428668     -0.489023339637     -1.151802066234
H      2.334634796217     -0.864553173703     -1.499332143652
H      1.173472774291      0.541658209000     -1.383521899391
O      0.532222467465      2.472861264104      0.763805379599
C     -0.278350087583      1.682843207992      0.370449277547
H     -0.875388959186      1.883616241344     -0.543877322385
C     -0.634948031360      0.388760467368      1.038479560586
H      0.106961118187      0.154293126807      1.803291718097
H     -1.597328110839      0.558804843899      1.532139430890
C      0.544448032287     -1.244431748479     -0.474443866419
H      0.799799968611     -2.272272813445     -0.255158081175
C     -0.785218167066     -0.771643466745      0.046110500410
H     -1.411565604214     -0.443884723593     -0.788763161127
H     -1.296543625479     -1.597028094914      0.542622673254
