14
OptimizedStructure
C      1.124300606038     -2.100491181150     -0.712233876429
H      1.279381549733     -2.710172102331     -1.585614749521
H      1.781582428508     -2.286744617582      0.121558920707
O     -1.627908541581      2.866311296247     -0.220095256691
C     -1.189743235832      1.978803089774      0.454549742790
H     -1.689868934742      1.679435871192      1.399086415437
C      0.046194418964      1.184838611865      0.151853773719
H      0.293693681262      1.305422049923     -0.904663385060
H      0.855177825140      1.643204754913      0.726817568985
C      0.179374765816     -1.181638293031     -0.659165234565
H     -0.468935139862     -1.011812923229     -1.509032854518
C     -0.084950192027     -0.305231099732      0.524909115074
H     -1.101423715492     -0.499171594050      0.881186889305
H      0.603124484075     -0.562753862808      1.330842930766
