14
OptimizedStructure
C     -0.264954044484     -0.305510189809     -0.190589086254
H     -0.789362270942     -0.015688752464     -1.113595061437
H     -0.999695245738     -0.306526894833      0.632483028847
O      0.773468024851      0.618003916424      0.098863923812
C      0.347565809503      1.909380678695      0.293150478840
H      0.421088868184      2.543168685715     -0.587886589430
C     -0.085227354117      2.369588980348      1.451880408686
H     -0.153620101044      1.733700004970      2.318292184980
H     -0.371014507298      3.398335541261      1.571704268673
C      0.334386090633     -1.669583686945     -0.325233794210
H      1.086016462395     -1.897553624043      0.416671213477
C     -0.000555802244     -2.541097825712     -1.256672306687
H     -0.742398941064     -2.316335581931     -2.005649334930
H      0.444303011364     -3.519881251676     -1.303419334366
