14
OptimizedStructure
C      0.540535835295     -0.892287843114     -1.550298092168
H      0.509409926667     -1.333559673496     -2.531419808964
H      1.260308216063     -0.102391366592     -1.409139297884
O      0.408848237506      2.568750200453     -0.464846573704
C      0.513721126467      1.642988310922      0.288713054832
H      1.499886738232      1.360616356159      0.713568742467
C     -0.613725296053      0.792559914916      0.792412159760
H     -0.803169478093      1.119749806787      1.819956962935
H     -1.509921189742      0.983442291529      0.200180275232
C     -0.261910767389     -1.289777585750     -0.581389202591
H     -0.976346019371     -2.080698941145     -0.765161472389
C     -0.271995825311     -0.703103677273      0.803612473316
H     -1.005265754356     -1.228361032136      1.416521805563
H      0.709624250084     -0.837926761261      1.267288973596
