14
OptimizedStructure
C      0.243280358522     -0.177550201260     -1.509133533111
H      0.846133958300     -0.298190659707     -2.405357466807
H     -0.797954136002      0.030655087316     -1.765404398470
O      0.824288684496      1.074501668351     -0.887900982102
C      0.530585569039      1.360981829613      0.360390350454
H      1.393669157238      1.638209621373      0.963671485267
C     -0.602894923690      0.798880933624      0.954509482445
H     -0.718609663289      0.969082376074      2.016463400056
H     -1.526834681931      0.934997167366      0.410070020681
C      0.411741658353     -1.190694302179     -0.481510769106
H      1.446758117487     -1.442935607298     -0.275849797847
C     -0.439721733928     -1.016858976964      0.628377038817
H     -1.493173906365     -1.187899422674      0.443010910150
H     -0.117268458230     -1.493179513633      1.548664259573
