14
OptimizedStructure
C     -0.640586698180     -0.644264633910     -0.235413438395
H     -0.991315670263     -0.151683352332     -1.156996322813
H     -1.271557096253     -1.512504251343     -0.031784491435
O     -0.846463033859      0.222097246918      0.872168333506
C     -0.236889456607      1.450911892456      0.786361747626
H      0.773284802096      1.492460099840      1.187694606988
C     -0.841381388789      2.521158615781      0.305233857453
H     -1.843802996608      2.469394569428     -0.084494072354
H     -0.358603593374      3.481206298100      0.302070139670
C      0.790310342883     -1.062419557506     -0.411103083214
H      1.485584798281     -0.257557077373     -0.611352841380
C      1.208710655307     -2.310660295336     -0.328814745625
H      0.529467888700     -3.122455670986     -0.126500342407
H      2.243241446665     -2.575683883738     -0.467069347620
