14
OptimizedStructure
C     -0.007997601809     -1.401092823954     -1.896462749944
H      0.413961278014     -1.368178225182     -2.886174885620
H     -0.819294103782     -2.096478766070     -1.748195290509
O      1.323413068362      2.006979688657      0.330371405843
C      0.463169122625      1.728541223040      1.116477889692
H      0.435697865264      2.217590801084      2.112065148878
C     -0.642584047757      0.732533450489      0.893636915720
H     -1.239133984437      0.636186327047      1.801076030072
H     -1.283265735410      1.112652087530      0.093363500075
C      0.447316263601     -0.642681634977     -0.917746976420
H      1.258655860832      0.050669852802     -1.086816764503
C     -0.106406973592     -0.650783623876      0.472423324097
H     -0.920873456006     -1.374940922567      0.541753619134
H      0.677342444095     -0.950997434022      1.174228833486
