14
OptimizedStructure
C      0.765293466807     -1.247918606179      0.619602778531
H      1.697735106230     -1.789452523953      0.732854342964
H      0.014146446965     -1.579156490686      1.335378545845
O      1.140693157845      0.200679854614      1.153027150304
C      0.145444734561      1.044771286795      1.038852208574
H     -0.555092978883      1.107915159884      1.876418374428
C     -0.266935633937      1.442830345592     -0.222825018307
H     -1.122985323135      2.099323699202     -0.293742706767
H      0.488945596470      1.618488304533     -0.973283115246
C      0.298589974790     -1.060752049449     -0.722592148528
H      1.038404265818     -1.081453303821     -1.510554603429
C     -0.835291978130     -0.281128137977     -0.898712584618
H     -1.139932223569     -0.040312217786     -1.907877503854
H     -1.669014611832     -0.433835320769     -0.226545719896
