14
OptimizedStructure
C      1.559560344896     -1.451876143831     -0.665308144834
H      2.119767700858     -2.139929385209     -1.274246463260
H      2.140369280106     -0.829237064209     -0.004974962464
O     -1.391490184147      2.946489688570      0.636120031555
C     -0.971200030535      1.866731651018      0.940681380684
H     -1.191692645262      1.428607773884      1.936242118499
C     -0.120096900131      0.984996500057      0.078440200267
H     -0.095782674257      1.375559602558     -0.940040015210
H      0.893381762276      1.026298575558      0.485985454365
C      0.242905409928     -1.385390810631     -0.727824831999
H     -0.290828330168     -2.040267694414     -1.403188074412
C     -0.617054084554     -0.465365324993      0.094029132389
H     -1.640255020651     -0.493064678949     -0.284269170864
H     -0.637584628359     -0.823552689409      1.128353345284
