14
OptimizedStructure
C      0.896798421815     -0.986202307166     -1.557554840491
H      0.874902949368     -0.987174209052     -2.633697705122
H      1.862508470065     -1.126266204833     -1.100186679461
O      0.547144732606      2.538138957035      0.029358687008
C     -0.281945608304      1.687353835700      0.181541838325
H     -1.171786490845      1.637815071620     -0.475132767392
C     -0.252330088180      0.633800598050      1.252952086710
H      0.616625684142      0.811020883787      1.887165488225
H     -1.153897428400      0.763543905972      1.855757277854
C     -0.194326547355     -0.818174521639     -0.835062146345
H     -1.152074133479     -0.685134818341     -1.320784052456
C     -0.209229018029     -0.802130120266      0.665898552191
H     -1.072931005597     -1.367998486427      1.019247841292
H      0.690540062192     -1.298592584439      1.030496419661
