14
OptimizedStructure
C      1.534928345139     -1.351850279476     -0.272383366512
H      2.237772940627     -2.102302528953     -0.589913874142
H      1.948932831095     -0.527415451934      0.285482540745
O     -0.878826589877      2.910274656262      1.118824020097
C     -0.497084721620      1.779844725872      1.010389462489
H     -0.164232530147      1.202073749523      1.897746830670
C     -0.396700435379      1.013698896201     -0.273810497199
H     -0.988940773922      1.519595510623     -1.037378066714
H      0.650557469248      1.074707088728     -0.583369973208
C      0.247770621767     -1.447003386324     -0.548674662313
H     -0.117535459155     -2.306905520389     -1.093833415362
C     -0.806741195001     -0.461034745148     -0.127946578796
H     -1.714107283696     -0.640443718640     -0.704949022512
H     -1.055793219078     -0.663238996347      0.919816602757
