14
OptimizedStructure
C      1.324417126998     -1.323405204343     -1.018802165586
H      1.627689466307     -1.619064072801     -2.008639387607
H      2.102086063749     -1.278306626032     -0.274344435371
O      1.023628790065      2.001140454802      0.960081810957
C      0.056262409343      1.810186358656      0.279888818849
H     -0.100050569083      2.385070111288     -0.654682094142
C     -1.017235847388      0.799710846050      0.585090421876
H     -1.429292495197      1.029940091509      1.570409696311
H     -1.814185167866      0.848904883014     -0.156564608113
C      0.071373037690     -1.031919525801     -0.727718646572
H     -0.693886025924     -1.078595680037     -1.492822515577
C     -0.405682488469     -0.612441658805      0.627160427237
H     -1.169435281788     -1.312688429067      0.976113384652
H      0.424310981563     -0.618531548433      1.334829293087
