14
OptimizedStructure
C      0.890544923198     -2.141755787163     -0.132084635708
H      1.718792039431     -2.758037943882     -0.436899113038
H      0.367118833384     -2.452896319229      0.757255077331
O      0.177349415457      2.389319179087      1.969464020414
C     -0.505782185519      1.731333301395      1.237973287153
H     -1.530740722235      1.426987610015      1.534618805266
C     -0.109493886597      1.257256445132     -0.128742597544
H     -0.541492693192      1.969371230451     -0.837298553131
H      0.976430058409      1.322325701237     -0.219787449826
C      0.530970007944     -1.067922756549     -0.808507199598
H      1.073716927105     -0.773942080465     -1.697688595926
C     -0.606760642642     -0.171304402453     -0.430927749106
H     -1.327057884733     -0.148576528666     -1.252052501489
H     -1.113594190009     -0.582157648911      0.444677205202
