14
OptimizedStructure
C      0.405660526468     -1.621029990746     -1.698482389173
H      0.850498217847     -1.585046691752     -2.677494455818
H      0.189325979516     -2.602461740886     -1.308151748290
O      0.849568465159      2.754997954862      0.801253644273
C      0.643640726767      1.604952763309      1.066354025373
H      1.445951545513      0.961477380977      1.481886838886
C     -0.666898160269      0.892253581053      0.901108341203
H     -1.126276590791      0.844979367788      1.893545433827
H     -1.321380146384      1.478664049372      0.253679387850
C      0.138501041731     -0.526558713013     -1.011481505714
H      0.366689270714      0.445800868872     -1.426993520981
C     -0.479555392136     -0.523875987868      0.359208673268
H     -1.449246573701     -1.027201061948      0.322387087600
H      0.153521089566     -1.096951780020      1.043180187696
