14
OptimizedStructure
C      0.042392024207      0.014033667338     -0.979528226954
H      1.099979819629      0.274555643491     -1.142047388079
H     -0.571398803466      0.623462091547     -1.657222586752
O     -0.313022806139      0.283105741830      0.366378958261
C     -0.094521066482      1.550864825254      0.797331661941
H      0.364542295543      2.224750133775      0.079487446282
C     -0.414303917751      1.947105019212      2.018303975782
H     -0.868900302723      1.272432059713      2.720001700877
H     -0.224913710655      2.953937279470      2.336642839410
C     -0.173025237800     -1.450831330537     -1.246088380746
H     -0.945930494942     -1.698693618690     -1.958962047209
C      0.507087741382     -2.396098660840     -0.625887789644
H      1.268519319207     -2.157502998759      0.097794434858
H      0.323495139988     -3.441119852803     -0.806204598029
