14
OptimizedStructure
C     -0.124329957020     -1.068360573076     -1.901861238485
H      0.472005211202     -1.117927677855     -2.796614135670
H     -1.176258514039     -1.273738844578     -2.018330565952
O      1.429917947663      2.289372251875      1.090568388576
C      0.569231761681      1.645725884517      0.560666982396
H      0.345584358091      1.764924953127     -0.517654539531
C     -0.321816379779      0.655813662969      1.253406412210
H     -0.002504377452      0.559423846041      2.291727220961
H     -1.320300534949      1.101355984430      1.245506163965
C      0.399763600295     -0.778053190363     -0.726322961113
H      1.460031961521     -0.578763559421     -0.632729750706
C     -0.374212767764     -0.724466898839      0.555008376696
H     -1.409911293915     -1.008126375324      0.363089443095
H      0.052798984464     -1.467179463503      1.233540203558
