14
OptimizedStructure
C      0.605727333722     -1.957135698149     -1.216492039214
H      1.122372107972     -2.132902541955     -2.143759178691
H      0.136439065048     -2.814508928723     -0.761466313591
O     -0.284244525515      2.953539674929     -0.386739988811
C     -0.712374676656      1.902569823402     -0.002742800702
H     -1.674393263831      1.503323002743     -0.384256851351
C     -0.057806573326      1.011936675468      1.012674567300
H      0.983356789752      1.312361097194      1.143488007111
H     -0.579969116745      1.178744791762      1.960153282673
C      0.548119031432     -0.759979803652     -0.664484807338
H      1.027515893349      0.083387525442     -1.143144689799
C     -0.162242911257     -0.462675469400      0.626944122163
H     -1.215660647141     -0.743145350641      0.533850564280
H      0.263161493196     -1.075514798420      1.425976125971
