14
OptimizedStructure
C      0.357883309068     -0.920698448691      1.180012439242
H     -0.607708874208     -0.773854619944      1.669159528461
H      1.018485569603     -1.521685502853      1.799385894646
O      1.065485348144      0.416964734269      1.145982430080
C      0.700522304412      1.307561060773      0.251448517364
H      1.533653815763      1.767954009699     -0.277371268807
C     -0.559630696248      1.216347170744     -0.346423531113
H     -1.393251007222      1.148009346701      0.338421256188
H     -0.749852061203      1.898415017237     -1.164172421742
C      0.264120740963     -1.304539449847     -0.218094380546
H      1.221594327046     -1.513872619197     -0.683491709634
C     -0.653209189974     -0.529702419521     -0.956501922807
H     -1.697375911962     -0.674831283351     -0.707445280838
H     -0.500717674181     -0.516066996018     -2.030909550494
