14
OptimizedStructure
C     -0.331539511119     -0.219171657558     -0.631813894669
H      0.075106887270      0.458403162084     -1.398730001871
H     -1.385217030063     -0.415757732469     -0.872729773231
O     -0.253907014932      0.383302032280      0.643665286467
C      0.003444616313      1.711313490612      0.707613893520
H      0.191428273669      2.206416442784     -0.242212864401
C      0.034946682726      2.372375346613      1.853180807473
H     -0.153153656563      1.876576128352      2.787422090596
H      0.251764634754      3.422699692496      1.874511547667
C      0.452373227801     -1.497973778813     -0.637839649484
H      1.425969788252     -1.427973728299     -0.172866763308
C      0.019753627283     -2.632368459170     -1.152680523730
H     -0.953162038921     -2.713837713605     -1.609113297530
H      0.622191513531     -3.524003225307     -1.148406857499
