14
OptimizedStructure
C     -0.622218048565      0.021137925169     -1.122207327427
H     -0.340329864345      0.836510186203     -1.802131990276
H     -1.564973563172     -0.415743340333     -1.463914713865
O     -0.913317126344      0.538522991228      0.163884820643
C      0.051915708392      1.310483312946      0.727425362144
H      0.873734878176      1.593580900529      0.076499033360
C     -0.012613543344      1.717982344148      1.983866975999
H     -0.829335225112      1.431231037617      2.620332008616
H      0.747652561801      2.352956200333      2.395915966011
C      0.459717128258     -1.030330368189     -1.084414279526
H      1.406981938260     -0.765830758789     -1.534065508106
C      0.296196669861     -2.198354733316     -0.492583675960
H     -0.639847606371     -2.464795000817     -0.030148461216
H      1.086436092504     -2.927350696728     -0.438458210398
