14
OptimizedStructure
C      1.720530273932     -0.577792799903     -0.611526206731
H      2.555413717646     -0.962205722319     -1.172174176536
H      1.896179494389      0.343118294130     -0.084491203326
O      0.025822963974      1.968561666671     -0.896821731829
C     -0.713832233813      1.715891106624      0.010499592583
H     -1.557327708321      2.396595543629      0.250943936426
C     -0.633241562785      0.509426893316      0.907246844211
H      0.309635626911      0.545037804863      1.457420013014
H     -1.453194947305      0.536522730682      1.625401391839
C      0.556304264772     -1.196518112195     -0.615814020066
H      0.440716312375     -2.110563452747     -1.186539178839
C     -0.693014281178     -0.804926048311      0.114136199524
H     -1.513154919289     -0.749961007981     -0.608922501684
H     -0.940837001310     -1.613186896459      0.810641041415
