14
OptimizedStructure
C      0.599961208843     -1.984293652598     -1.020965258148
H      0.855293365100     -2.289492950054     -2.021182349923
H      0.920597662093     -2.638799270991     -0.226522640467
O     -1.420791781979      2.423088341489      0.018756950371
C     -0.293191435472      2.016717578599      0.018065297524
H      0.454390445551      2.423594185639     -0.692008345920
C      0.225514489919      0.935981717824      0.927248170983
H      1.307073259345      0.840308900518      0.836045565810
H     -0.030908062163      1.201363591397      1.955243685554
C     -0.074036395281     -0.877015391801     -0.775912533817
H     -0.386358998825     -0.232714870760     -1.587983564243
C     -0.454315154910     -0.406441659900      0.592077810398
H     -1.536533677645     -0.261633401741      0.640515480350
H     -0.166694924577     -1.150663117620      1.336621731529
