14
OptimizedStructure
C     -0.201110777397     -0.879288791090     -1.745954377818
H      0.248809680426     -1.338816672483     -2.608806275256
H     -0.941244649028     -0.123294548800     -1.947345024628
O      1.286542347472      2.366785340882     -0.098388258128
C      0.964108659252      1.436194700044      0.583088815189
H      1.711456639619      0.890116615105      1.194390274363
C     -0.429641228745      0.899319946221      0.723824753909
H     -0.820815331032      1.268062604014      1.677152278816
H     -1.053938888608      1.299368767417     -0.074976461634
C      0.141139201371     -1.225791995248     -0.519453997915
H      0.885378056613     -1.996865856025     -0.371260431910
C     -0.440783321870     -0.633126441263      0.735596342553
H     -1.473250032838     -0.974381806570      0.852029695029
H      0.123349644766     -0.988281862205      1.600102667430
