14
OptimizedStructure
C      1.734514948894     -0.616384290465     -0.403195630538
H      2.618350018716     -0.992539866356     -0.889356287832
H      1.886430284495      0.217829596346      0.259554317769
O     -1.416460804260      2.213222466384     -0.655137389764
C     -0.550628953988      1.713017022157      0.006105246969
H      0.475079470902      2.129635232831     -0.002957546490
C     -0.739273886621      0.494598998639      0.866568599146
H      0.043908946876      0.417911345041      1.619171988281
H     -1.710844896183      0.572608549122      1.358779472723
C      0.551935447366     -1.159807164689     -0.618475541330
H      0.472964700277     -2.003636752437     -1.293465562047
C     -0.759963822246     -0.765362290695     -0.013876201683
H     -1.484236956194     -0.614276139964     -0.819942377299
H     -1.121774498035     -1.606816705915      0.586226912095
