14
OptimizedStructure
C      0.105821555080      0.252619955427     -1.313887518999
H      0.823784413175      0.077876238707     -2.116647612924
H     -0.895924840595     -0.018437701228     -1.657131051440
O      0.107223310063      1.631947310177     -0.997858986599
C     -0.096295829328      1.762879697183      0.329688379394
H     -0.544362594145      2.689254775101      0.645098109443
C     -0.141305862649      0.476542431270      1.046936783705
H      0.403763009235      0.475651045951      1.989048770371
H     -1.179815398268      0.153048258451      1.265875229338
C      0.449348016857     -0.487808238384      0.010126527567
H      1.553353899815     -0.474119987178      0.062682615383
C     -0.132779030919     -1.823807358173      0.183947873004
H     -0.105075213355     -2.535939574015     -0.618359344998
H     -0.347735434966     -2.179706853289      1.170480226756
