14
OptimizedStructure
C      1.614364043978     -0.884708394691     -0.696456831222
H      2.292839380474     -1.126767285256     -1.496111279177
H      2.069411195082     -0.518906208974      0.209150215584
O     -1.149260930468      2.795202623957      0.304051900241
C     -0.609642904101      1.756953149479      0.044698871013
H     -0.127012664795      1.589936560818     -0.938701637155
C     -0.497116768235      0.582302620122      0.970343164905
H      0.508492089426      0.608118427044      1.397517106950
H     -1.211971020808      0.694713377329      1.787482796362
C      0.308953970923     -1.033252283796     -0.827894980156
H     -0.088740956373     -1.416541395282     -1.758392912584
C     -0.713192576853     -0.746674439286      0.237068429146
H     -1.709989547985     -0.746087819350     -0.207747420816
H     -0.687133310265     -1.554288932112      0.974992576909
