14
OptimizedStructure
C     -0.542819757129      0.080739865661     -1.219242243859
H      0.143785243518      0.742113356826     -1.767350983441
H     -1.403655548693     -0.124676924636     -1.868931026826
O     -1.072366568138      0.753436322942     -0.090323135972
C     -0.192418226035      1.600956430489      0.540998587362
H     -0.277769002108      2.637838829298      0.219951580829
C      0.663323048852      1.240384154037      1.478451681407
H      0.759674217947      0.217800529408      1.797644024947
H      1.293945714519      1.968367577309      1.956008711338
C      0.149116099734     -1.217497322166     -0.903614971408
H      0.825932419528     -1.562281940850     -1.673837837192
C     -0.054690050606     -1.916721653469      0.195965398502
H     -0.742032203368     -1.571798461936      0.950623341926
H      0.449974611980     -2.848660762912      0.383656872388
