14
OptimizedStructure
C     -0.170895475416     -0.908593870322     -1.732470159790
H      0.217246105010     -1.209175317524     -2.690243037303
H     -1.137519531361     -0.432269737916     -1.750229664614
O      1.547523001704      1.597985254403      0.279069978168
C      0.380881241046      1.736500882651      0.508092674027
H     -0.087427997414      2.743346505613      0.500989027794
C     -0.590149004391      0.641103100215      0.839949812925
H     -0.967188861693      0.835406079933      1.848740292030
H     -1.442457965686      0.726348838270      0.163241835904
C      0.505280885114     -1.116887591211     -0.618336932601
H      1.467794505557     -1.606584592213     -0.667715670776
C      0.047376577047     -0.746344511793      0.764820480807
H     -0.674871904881     -1.490340712069      1.114627037729
H      0.904408425365     -0.770494328036      1.439464325699
