14
OptimizedStructure
C     -0.439832721923     -1.516167053742     -1.687467042799
H     -0.131440422472     -1.640079435247     -2.711339442445
H     -1.345260054556     -2.024605312604     -1.397621667459
O      1.778284296911      1.635779162544      1.432587466677
C      0.812273163888      1.721429544595      0.728238225387
H      0.793420824629      2.432008513515     -0.122267039152
C     -0.436870069356      0.898215615185      0.888297234236
H     -0.772769279286      0.983911951950      1.924049567490
H     -1.221968201098      1.253509440522      0.221493076957
C      0.251586071397     -0.790801748396     -0.829462056732
H      1.158148021077     -0.287409185169     -1.140691770835
C     -0.131025832523     -0.585380819878      0.601921595331
H     -1.009079788928     -1.186519070151      0.843976946907
H      0.694533992242     -0.893891603123      1.248284906439
