14
OptimizedStructure
C      1.501278702670     -1.480864200346     -0.641456766626
H      2.039604864610     -2.332041001491     -1.021811846430
H      2.103501335528     -0.702937975867     -0.204716565874
O     -1.730157598629      1.655674108908      1.797756839831
C     -0.926632607255      1.875279492325      0.935720213285
H     -0.882564683987      2.868923152499      0.446114090295
C      0.063921679528      0.871846442502      0.413800675527
H      0.737103430751      1.333996155097     -0.307032766699
H      0.640617397383      0.489082093553      1.258955841259
C      0.185700976687     -1.413724541916     -0.714403470410
H     -0.366459606417     -2.228064007236     -1.167348765027
C     -0.688990645759     -0.300707154437     -0.227712708395
H     -1.281412980333      0.067588162504     -1.071871837971
H     -1.395510264777     -0.704050726096      0.504007067235
