14
OptimizedStructure
C      1.575996294292     -0.659311571968     -0.892625357545
H      2.506984096055     -1.152617966238     -1.114545953618
H      1.549080311384      0.404695042471     -1.057962927725
O     -0.529347447092      2.086456495345     -0.801987727040
C     -0.422765896964      1.778924301282      0.350555311940
H     -0.148762824762      2.532747111068      1.117688910529
C     -0.665735785410      0.416311403938      0.931708268473
H      0.134603020653      0.189125234755      1.639438118545
H     -1.589930736028      0.504070757827      1.512299441061
C      0.522036051162     -1.323527557896     -0.456516972203
H      0.582227634013     -2.394206042728     -0.311888410865
C     -0.799678566997     -0.689015603554     -0.123492879534
H     -1.224378793690     -0.240197341152     -1.025640513412
H     -1.490327356616     -1.453454263150      0.232970691393
