14
OptimizedStructure
C      0.531331381171     -0.027592957286     -1.497934776632
H      1.380757680406     -0.006606978395     -2.171410383470
H     -0.406661933488      0.150266618483     -2.022163723175
O      0.721906995426      1.308979926839     -0.660562835156
C     -0.186637825691      1.442991417432      0.273587743995
H     -1.114392139401      1.953101566723     -0.000863217744
C     -0.182331845920      0.576796920617      1.355265090022
H      0.770873468786      0.284679901279      1.769350632601
H     -0.972409948454      0.673876332111      2.086829590087
C      0.509131459022     -1.090527040329     -0.536682063763
H      1.458668822536     -1.527647443322     -0.261104096934
C     -0.511667342128     -1.077272234334      0.402632605277
H     -1.514227525636     -0.853356603917      0.063581954202
H     -0.484341246631     -1.807689425901      1.199473480691
