14
OptimizedStructure
C      0.949578560586     -1.255565082271     -1.708648896743
H      1.842052388104     -1.701745523230     -2.112532833139
H      0.235316947774     -0.885484649991     -2.425991012294
O     -0.362278856304      3.013170381575      0.639296089074
C     -0.832359862610      1.911719453790      0.662126254466
H     -1.890619495023      1.736985425280      0.378015340059
C     -0.106762926329      0.665519901172      1.074680387243
H      0.967132347174      0.858347691390      1.038343440130
H     -0.373087605686      0.487796179847      2.120274620009
C      0.736705587473     -1.168513238265     -0.409777705942
H      1.470105218046     -1.545256921862      0.291529634410
C     -0.480598747082     -0.555387285642      0.209228267804
H     -1.172955690854     -0.254549763958     -0.579760406885
H     -0.982227865270     -1.307036567836      0.823216821808
