14
OptimizedStructure
C      1.246849816580     -2.068475329289     -0.446248391237
H      1.976564242110     -2.569225134788     -1.059305719172
H      1.105085894007     -2.463766093273      0.546240659957
O     -1.329321185173      1.560416290814      2.115346232493
C     -1.068816076437      1.871363869471      0.987855055926
H     -1.592630683276      2.718583323000      0.500878745734
C     -0.061215755851      1.172324382154      0.117298878179
H      0.030854873989      1.673068052630     -0.846212664199
H      0.906244370076      1.194624799648      0.625033631543
C      0.555725792285     -1.033682793149     -0.884349330845
H      0.715551377159     -0.652150386354     -1.884907757639
C     -0.467716557458     -0.300675192822     -0.077429248217
H     -1.430996916381     -0.334194963730     -0.594975878736
H     -0.586179191629     -0.768210824313      0.900775786212
