14
OptimizedStructure
C      1.508127082736     -1.045577015213     -0.913858835491
H      2.090740778381     -1.000391955518     -1.817785535178
H      2.033869016623     -1.345625419810     -0.022250231811
O      0.691177799189      2.425509496878      0.617649216851
C     -0.162673519374      1.701920570248      0.191335555942
H     -0.533887106181      1.811307003520     -0.845838039450
C     -0.843063667649      0.613797804677      0.973531598803
H     -0.463595531970      0.634583118882      1.995436541174
H     -1.908858305511      0.851863968864      0.994437380727
C      0.223298058169     -0.746299123499     -0.893124947895
H     -0.280770138189     -0.453243601539     -1.804683832761
C     -0.625240698513     -0.788058518960      0.344453663419
H     -1.591028241082     -1.233013900648      0.098866684323
H     -0.138095526630     -1.426772427881      1.081830781348
