14
OptimizedStructure
C      0.220873025149      0.004287854158     -0.935433471997
H      0.751984653477      0.416320006731     -1.806271970110
H     -0.847462911117      0.194636866693     -1.079041533594
O      0.713532031874      0.652519371864      0.220248218119
C     -0.084103308067      1.459679108550      0.952192747617
H      0.480645839963      1.812711395524      1.806609026419
C     -1.337706217824      1.842461888523      0.766174655791
H     -1.952330273331      1.535079941994     -0.061049850648
H     -1.799374089532      2.502099258297      1.475495578844
C      0.442967178734     -1.480287936095     -0.882072106799
H      0.147243793517     -1.995431451927     -1.786393824092
C      0.943841883010     -2.131596957218      0.149038250428
H      1.240398988430     -1.613567504912      1.044927727744
H      1.079489405717     -3.198911842181      0.135576552278
