14
OptimizedStructure
C      0.369769957684     -0.236613327098     -1.468567413728
H      0.953307982385     -0.694405583323     -2.268683248209
H     -0.447898266205      0.348037034413     -1.929865368987
O      1.243988506915      0.749872983285     -0.866734517153
C      0.800287881292      1.240089118625      0.288867445730
H      1.420679244067      2.012767168361      0.706538891853
C     -0.465382815296      0.778812520676      0.894635001592
H     -0.552637885700      1.151369724742      1.914976314727
H     -1.316473034994      1.170838656206      0.318646720836
C     -0.146364857780     -1.233010027711     -0.510965349593
H      0.088556812829     -2.270647522549     -0.655694911297
C     -0.536325335793     -0.758048658714      0.845755970535
H     -1.547862769155     -1.095090098847      1.115610536186
H      0.136354579751     -1.163971988066      1.615479927507
