14
OptimizedStructure
C      0.960677749076     -2.100688324948     -0.057190864052
H      1.783529986923     -2.709226594329     -0.392217127584
H      0.547505540632     -2.344054113802      0.907753114922
O     -0.889518806784      1.189001882827      2.095803875375
C     -0.414704116977      1.775212444258      1.166126760397
H     -0.068513068379      2.824120930413      1.269881139439
C     -0.218210533916      1.232762640981     -0.220252402331
H     -0.761418501819      1.892600997075     -0.901604975078
H      0.843341503749      1.346340647632     -0.458964215662
C      0.477418625719     -1.112043427331     -0.784492671868
H      0.908965743618     -0.882365357847     -1.751390229118
C     -0.658601416057     -0.232543602225     -0.365261144618
H     -1.459930503715     -0.306838836199     -1.103739846007
H     -1.050542202069     -0.572279286504      0.595548586184
