14
OptimizedStructure
C     -0.413531405443     -0.142469816040     -0.411773161952
H     -1.083166918430     -0.029956359162     -1.272741909988
H     -1.003595964231     -0.033511720825      0.503659899627
O      0.583432068836      0.864734604369     -0.496915420782
C      0.674751155889      1.831659150764      0.441350791163
H      1.519796182518      2.463545889669      0.196384480809
C     -0.069355567537      2.078598105584      1.508044223517
H     -0.921619010292      1.493156211397      1.804602882037
H      0.170976470330      2.912702452275      2.138813280362
C      0.232760566522     -1.495708362673     -0.420678044799
H      1.055299226562     -1.604562261634      0.273037152022
C     -0.139117243750     -2.492866039295     -1.199689187553
H     -0.951616685204     -2.391982199066     -1.900462003464
H      0.344987124230     -3.453339655362     -1.163632980999
