14
OptimizedStructure
C      0.491901661262     -1.136951848724     -1.806092244454
H      1.317679676777     -1.292820641704     -2.478025177603
H     -0.492497581838     -1.175020012352     -2.243363883652
O      0.394870192631      1.954308155632     -0.606933527243
C     -0.261321466968      1.818542356929      0.385492957243
H     -0.942984646803      2.625181382425      0.726404919749
C     -0.254244809096      0.602893708918      1.272711176953
H      0.717336326065      0.570836575119      1.774298929386
H     -1.032831486719      0.685407714352      2.031400418541
C      0.672259325401     -0.902854243812     -0.520705209873
H      1.671261120078     -0.861923407288     -0.107101293482
C     -0.434607089434     -0.692013918730      0.462483006837
H     -1.394174756937     -0.666197237456     -0.057674737734
H     -0.452646464418     -1.529388583309      1.167104665332
