14
OptimizedStructure
C      0.880193177000     -1.216666148954      0.664195747309
H      1.944543719563     -0.924918854129      0.638451311593
H      0.823833001713     -2.187523333316      1.175095733190
O      0.135400429811     -0.285823954465      1.426678165016
C     -0.670817489292      0.499106642965      0.569156812825
H     -1.649025723393      0.606953261376      1.043176556159
C     -0.118622424503      1.776272448018      0.082524297192
H     -0.734558142445      2.653050997516      0.035767937004
H      0.946680055383      1.894718105984      0.028196241339
C      0.288676902873     -1.243516705879     -0.706002416125
H      0.909533235930     -1.542397120703     -1.533941319447
C     -0.701766433034     -0.223536005339     -0.810645732457
H     -0.344946904636      0.645539027805     -1.479277807002
H     -1.709123404970     -0.451258360878     -1.133375526595
